create by Ambrose Hui from M${^5} lab$

960 atoms
1 atom types
944 bonds
1 bond types
928 angles
1 angle types

0.0 40.175316 xlo xhi
0.0 37.47995 ylo yhi
0.0 34.732365 zlo zhi

Masses

1 28.05276

Pair Coeffs # lj/cut

1 0.358214 4.422939

Bond Coeffs # harmonic

1 18.166436 2.504669

Angle Coeffs # gaussian

1 2.090669  171.649653


Atoms # angle

1 1 1 5.266721725463867 -8.972846984863281 -22.598400115966797 0 0 0
2 1 1 4.377187728881836 -7.087886810302734 -21.0327205657959 0 0 0
3 1 1 3.495182752609253 -5.695742130279541 -18.99478530883789 0 0 0
4 1 1 2.293569803237915 -4.305163860321045 -17.11453628540039 0 0 0
5 1 1 0.9708834886550903 -2.7796409130096436 -15.5276460647583 0 0 0
6 1 1 -1.550454020500183 -2.2664639949798584 -15.282973289489746 0 0 0
7 1 1 -4.086751937866211 -1.715806007385254 -14.900768280029297 0 0 0
8 1 1 -4.812838554382324 -3.8741354942321777 -13.668244361877441 0 0 0
9 1 1 -5.385649681091309 -4.134872913360596 -11.02936840057373 0 0 0
10 1 1 -5.4403228759765625 -6.49042272567749 -9.685738563537598 0 0 0
11 1 1 -6.319515705108643 -8.597976684570312 -9.200538635253906 0 0 0
12 1 1 -8.01205062866211 -10.474519729614258 -9.685164451599121 0 0 0
13 1 1 -10.01887035369873 -10.695799827575684 -11.234783172607422 0 0 0
14 1 1 -12.024714469909668 -11.181238174438477 -12.811912536621094 0 0 0
15 1 1 -14.376871109008789 -11.085527420043945 -11.746816635131836 0 0 0
16 1 1 -16.490638732910156 -11.285981178283691 -13.256016731262207 0 0 0
17 1 1 -18.51066017150879 -11.518725395202637 -14.618447303771973 0 0 0
18 1 1 -19.660993576049805 -12.099230766296387 -16.59453582763672 0 0 0
19 1 1 -19.266931533813477 -14.617448806762695 -17.26692008972168 0 0 0
20 1 1 -16.96337890625 -15.189193725585938 -17.76251983642578 0 0 0
21 1 1 -14.607935905456543 -14.752185821533203 -16.812171936035156 0 0 0
22 1 1 -12.301483154296875 -14.255149841308594 -15.84506607055664 0 0 0
23 1 1 -9.88388729095459 -13.984819412231445 -15.225092887878418 0 0 0
24 1 1 -7.506848335266113 -13.734457015991211 -14.51816177368164 0 0 0
25 1 1 -5.745683670043945 -12.494996070861816 -14.041463851928711 0 0 0
26 1 1 -4.785470962524414 -10.271567344665527 -13.317166328430176 0 0 0
27 1 1 -3.4341166019439697 -8.480135917663574 -13.563549995422363 0 0 0
28 1 1 -1.7332943677902222 -7.133108139038086 -14.75664234161377 0 0 0
29 1 1 -1.3356736898422241 -7.188725471496582 -17.27141761779785 0 0 0
30 1 1 -0.6646043658256531 -7.814850330352783 -19.661479949951172 0 0 0
31 1 1 -0.020667746663093567 -8.5432767868042 -22.050945281982422 0 0 0
32 1 1 1.5574349164962769 -10.629826545715332 -22.367074966430664 0 0 0
33 1 1 3.08024263381958 -12.62516975402832 -22.7292423248291 0 0 0
34 1 1 4.393416404724121 -14.759663581848145 -23.1892147064209 0 0 0
35 1 1 6.601729393005371 -14.147897720336914 -22.96695899963379 0 0 0
36 1 1 8.585750579833984 -13.278532981872559 -21.560787200927734 0 0 0
37 1 1 8.255012512207031 -11.288473129272461 -19.80535125732422 0 0 0
38 1 1 7.111867427825928 -9.585582733154297 -18.71197509765625 0 0 0
39 1 1 5.3936052322387695 -10.431517601013184 -16.848264694213867 0 0 0
40 1 1 2.9970614910125732 -9.639688491821289 -16.34926986694336 0 0 0
41 1 1 0.8157187700271606 -11.063592910766602 -17.059579849243164 0 0 0
42 1 1 -0.7077237367630005 -12.380949974060059 -15.344523429870605 0 0 0
43 1 1 -0.8147141337394714 -13.731550216674805 -13.626526832580566 0 0 0
44 1 1 -0.08071873337030411 -15.697443008422852 -12.160747528076172 0 0 0
45 1 1 2.1176764965057373 -15.32879638671875 -11.931565284729004 0 0 0
46 1 1 4.164233207702637 -13.927311897277832 -11.191584587097168 0 0 0
47 1 1 6.14108419418335 -12.862401008605957 -11.424677848815918 0 0 0
48 1 1 7.795444965362549 -11.597900390625 -12.875818252563477 0 0 0
49 1 1 9.44206428527832 -10.216025352478027 -14.208916664123535 0 0 0
50 1 1 10.889480590820312 -8.373499870300293 -15.20121955871582 0 0 0
51 1 1 12.386566162109375 -6.634340763092041 -16.4165096282959 0 0 0
52 1 1 14.139129638671875 -5.2866291999816895 -17.822534561157227 0 0 0
53 1 1 13.27183723449707 -3.3861782550811768 -18.974937438964844 0 0 0
54 1 1 11.83691120147705 -1.2782992124557495 -18.883390426635742 0 0 0
55 1 1 10.4074125289917 -0.974729061126709 -16.784290313720703 0 0 0
56 1 1 9.427838325500488 1.219826579093933 -15.901799201965332 0 0 0
57 1 1 8.454126358032227 3.3435044288635254 -14.95465087890625 0 0 0
58 1 1 7.55775260925293 5.4996747970581055 -13.921648979187012 0 0 0
59 1 1 6.4275946617126465 7.642263889312744 -13.257695198059082 0 0 0
60 1 1 5.049496650695801 9.393702507019043 -13.739270210266113 0 0 0
61 1 1 21.043437957763672 -27.72064971923828 -24.43410301208496 0 0 0
62 1 1 21.11097526550293 -25.12447166442871 -24.545902252197266 0 0 0
63 1 1 21.378509521484375 -22.56087875366211 -24.334863662719727 0 0 0
64 1 1 22.14073944091797 -20.753145217895508 -25.97243881225586 0 0 0
65 1 1 21.938085556030273 -19.08672523498535 -27.63676643371582 0 0 0
66 1 1 22.05619239807129 -16.93783187866211 -26.562358856201172 0 0 0
67 1 1 23.961999893188477 -15.857287406921387 -28.03407096862793 0 0 0
68 1 1 26.504581451416016 -16.272991180419922 -27.566211700439453 0 0 0
69 1 1 27.33486557006836 -14.256230354309082 -26.497528076171875 0 0 0
70 1 1 27.36052703857422 -12.062296867370605 -25.536880493164062 0 0 0
71 1 1 27.145402908325195 -9.487051010131836 -25.386978149414062 0 0 0
72 1 1 24.708227157592773 -8.548768997192383 -25.356164932250977 0 0 0
73 1 1 22.426342010498047 -8.276041030883789 -24.797056198120117 0 0 0
74 1 1 20.050642013549805 -8.578282356262207 -23.7988224029541 0 0 0
75 1 1 19.24764633178711 -10.167460441589355 -21.92693328857422 0 0 0
76 1 1 18.531505584716797 -11.682502746582031 -19.980484008789062 0 0 0
77 1 1 16.86848258972168 -10.903252601623535 -18.081266403198242 0 0 0
78 1 1 15.685405731201172 -10.23345947265625 -15.864498138427734 0 0 0
79 1 1 13.791836738586426 -11.66581916809082 -15.587504386901855 0 0 0
80 1 1 11.875238418579102 -13.0681791305542 -15.806117057800293 0 0 0
81 1 1 9.915241241455078 -14.384835243225098 -15.68870735168457 0 0 0
82 1 1 7.505100727081299 -14.621235847473145 -16.57777214050293 0 0 0
83 1 1 5.126675128936768 -14.95803165435791 -17.387954711914062 0 0 0
84 1 1 2.8154683113098145 -15.017159461975098 -18.47518539428711 0 0 0
85 1 1 0.7348789572715759 -15.447585105895996 -19.885969161987305 0 0 0
86 1 1 -1.4351718425750732 -14.058438301086426 -19.530458450317383 0 0 0
87 1 1 -3.603672981262207 -12.772270202636719 -19.21753692626953 0 0 0
88 1 1 -5.743695259094238 -11.609662055969238 -18.54314613342285 0 0 0
89 1 1 -7.850932598114014 -10.535259246826172 -17.612817764282227 0 0 0
90 1 1 -9.952706336975098 -9.46047306060791 -16.779878616333008 0 0 0
91 1 1 -12.143147468566895 -8.380658149719238 -16.09116554260254 0 0 0
92 1 1 -14.542736053466797 -7.529219150543213 -15.560792922973633 0 0 0
93 1 1 -16.8812198638916 -6.491106986999512 -15.155926704406738 0 0 0
94 1 1 -18.61786460876465 -7.513781547546387 -13.540942192077637 0 0 0
95 1 1 -19.707300186157227 -8.234463691711426 -11.58191204071045 0 0 0
96 1 1 -20.013153076171875 -8.825421333312988 -9.051328659057617 0 0 0
97 1 1 -18.067359924316406 -8.05289363861084 -8.064133644104004 0 0 0
98 1 1 -15.52175521850586 -7.793509006500244 -8.036083221435547 0 0 0
99 1 1 -12.969358444213867 -7.388227462768555 -8.457942008972168 0 0 0
100 1 1 -11.077840805053711 -6.244164943695068 -8.370978355407715 0 0 0
101 1 1 -9.723928451538086 -4.206985950469971 -8.135528564453125 0 0 0
102 1 1 -8.700216293334961 -1.99032723903656 -7.494659900665283 0 0 0
103 1 1 -8.074475288391113 0.42809829115867615 -6.711496829986572 0 0 0
104 1 1 -6.773669719696045 2.2433712482452393 -6.796436309814453 0 0 0
105 1 1 -5.174038410186768 3.818125009536743 -6.69107723236084 0 0 0
106 1 1 -3.3822832107543945 5.049253463745117 -5.264684677124023 0 0 0
107 1 1 -1.5861481428146362 6.050898551940918 -3.876314401626587 0 0 0
108 1 1 0.45391494035720825 6.75476598739624 -2.4279747009277344 0 0 0
109 1 1 1.85420560836792 4.961845397949219 -0.9766358137130737 0 0 0
110 1 1 2.3748600482940674 5.381510257720947 1.5331610441207886 0 0 0
111 1 1 2.7199931144714355 5.6827073097229 3.9703149795532227 0 0 0
112 1 1 2.993340015411377 5.442680358886719 6.464932918548584 0 0 0
113 1 1 2.565147638320923 6.022332668304443 8.553791999816895 0 0 0
114 1 1 1.6876510381698608 7.86978816986084 9.980545043945312 0 0 0
115 1 1 0.6842334866523743 9.682153701782227 11.507081985473633 0 0 0
116 1 1 -0.28829267621040344 11.033668518066406 13.507333755493164 0 0 0
117 1 1 -1.8752186298370361 11.507110595703125 15.187349319458008 0 0 0
118 1 1 -4.05546236038208 11.633232116699219 15.911255836486816 0 0 0
119 1 1 -6.300529479980469 11.77704906463623 16.58564567565918 0 0 0
120 1 1 -8.385542869567871 11.169537544250488 18.088001251220703 0 0 0
121 1 1 6.902894020080566 -3.224188804626465 -0.7156092524528503 0 0 0
122 1 1 6.727959156036377 -4.567916393280029 -2.6991615295410156 0 0 0
123 1 1 7.586479187011719 -6.127221584320068 -4.123988151550293 0 0 0
124 1 1 9.438899993896484 -7.081666946411133 -5.624588966369629 0 0 0
125 1 1 11.183391571044922 -8.8953857421875 -6.500682353973389 0 0 0
126 1 1 13.77525520324707 -8.558816909790039 -6.835835933685303 0 0 0
127 1 1 15.64242172241211 -7.17350959777832 -7.024904251098633 0 0 0
128 1 1 17.003753662109375 -5.593795299530029 -7.960592746734619 0 0 0
129 1 1 18.312271118164062 -4.476336479187012 -9.885817527770996 0 0 0
130 1 1 19.51610565185547 -3.2200233936309814 -11.906797409057617 0 0 0
131 1 1 21.027271270751953 -1.845220685005188 -13.524478912353516 0 0 0
132 1 1 21.83778190612793 -2.5285239219665527 -15.920565605163574 0 0 0
133 1 1 22.93463897705078 -3.068512201309204 -18.10325813293457 0 0 0
134 1 1 24.197389602661133 -3.853149652481079 -20.06250762939453 0 0 0
135 1 1 25.563358306884766 -4.839015483856201 -21.945459365844727 0 0 0
136 1 1 26.197328567504883 -3.3929286003112793 -24.09343719482422 0 0 0
137 1 1 26.200580596923828 -1.5305297374725342 -25.368816375732422 0 0 0
138 1 1 27.317420959472656 0.7337967157363892 -25.180517196655273 0 0 0
139 1 1 27.076845169067383 2.4288454055786133 -23.287141799926758 0 0 0
140 1 1 26.116914749145508 4.896304130554199 -23.42899513244629 0 0 0
141 1 1 27.107196807861328 6.709423065185547 -24.811750411987305 0 0 0
142 1 1 25.298877716064453 7.769299507141113 -26.289642333984375 0 0 0
143 1 1 23.89729881286621 9.197345733642578 -27.805009841918945 0 0 0
144 1 1 22.574665069580078 10.806986808776855 -29.117212295532227 0 0 0
145 1 1 21.372516632080078 12.865363121032715 -30.110536575317383 0 0 0
146 1 1 22.609432220458984 14.680444717407227 -31.510852813720703 0 0 0
147 1 1 22.529773712158203 17.149208068847656 -32.182430267333984 0 0 0
148 1 1 21.833362579345703 19.52957534790039 -32.99045944213867 0 0 0
149 1 1 21.94168472290039 22.034263610839844 -33.77314376831055 0 0 0
150 1 1 20.609968185424805 22.88506317138672 -35.890907287597656 0 0 0
151 1 1 18.759552001953125 23.066259384155273 -37.29047393798828 0 0 0
152 1 1 16.72536849975586 23.91228675842285 -35.826812744140625 0 0 0
153 1 1 16.564823150634766 22.939252853393555 -33.67236328125 0 0 0
154 1 1 17.962196350097656 22.469736099243164 -31.55094337463379 0 0 0
155 1 1 18.584636688232422 21.088712692260742 -29.655969619750977 0 0 0
156 1 1 17.332101821899414 21.235057830810547 -27.42371368408203 0 0 0
157 1 1 17.154687881469727 19.205190658569336 -25.962745666503906 0 0 0
158 1 1 17.620922088623047 17.56683921813965 -24.377735137939453 0 0 0
159 1 1 18.056175231933594 16.654983520507812 -22.137557983398438 0 0 0
160 1 1 18.376766204833984 16.016477584838867 -19.67791175842285 0 0 0
161 1 1 19.757299423217773 17.343629837036133 -17.99401092529297 0 0 0
162 1 1 21.17494010925293 18.69064712524414 -16.264469146728516 0 0 0
163 1 1 20.886171340942383 18.365480422973633 -13.58686637878418 0 0 0
164 1 1 19.6103458404541 19.95470428466797 -12.633641242980957 0 0 0
165 1 1 18.37284278869629 21.91742515563965 -12.427022933959961 0 0 0
166 1 1 17.3341007232666 22.51254653930664 -14.329031944274902 0 0 0
167 1 1 16.39641761779785 21.78134536743164 -16.274580001831055 0 0 0
168 1 1 16.225709915161133 20.909677505493164 -18.645509719848633 0 0 0
169 1 1 18.078880310058594 20.9398193359375 -20.35593605041504 0 0 0
170 1 1 20.18238639831543 20.58746337890625 -21.76767921447754 0 0 0
171 1 1 22.012269973754883 21.448083877563477 -22.67241668701172 0 0 0
172 1 1 23.51921272277832 23.27149200439453 -23.941020965576172 0 0 0
173 1 1 23.349143981933594 25.271568298339844 -22.610214233398438 0 0 0
174 1 1 25.646141052246094 25.112361907958984 -21.55696678161621 0 0 0
175 1 1 27.87236785888672 24.77007293701172 -20.4096736907959 0 0 0
176 1 1 30.033044815063477 24.31208038330078 -20.440763473510742 0 0 0
177 1 1 32.302391052246094 23.36172103881836 -21.2324275970459 0 0 0
178 1 1 34.5853157043457 22.17719268798828 -21.900938034057617 0 0 0
179 1 1 36.81128692626953 21.206233978271484 -22.83176612854004 0 0 0
180 1 1 36.91131591796875 18.826841354370117 -23.019784927368164 0 0 0
181 1 1 -27.37070083618164 22.590375900268555 -8.995437622070312 0 0 0
182 1 1 -25.10808563232422 22.065147399902344 -9.708582878112793 0 0 0
183 1 1 -24.54774284362793 19.545089721679688 -9.426888465881348 0 0 0
184 1 1 -23.8480224609375 17.041616439819336 -9.21923542022705 0 0 0
185 1 1 -21.762630462646484 15.846193313598633 -10.136747360229492 0 0 0
186 1 1 -19.54939842224121 15.535017967224121 -10.693577766418457 0 0 0
187 1 1 -16.991662979125977 15.778024673461914 -10.817655563354492 0 0 0
188 1 1 -14.467578887939453 16.169818878173828 -10.862833976745605 0 0 0
189 1 1 -11.960227012634277 16.513254165649414 -10.64555549621582 0 0 0
190 1 1 -9.417644500732422 16.68671989440918 -10.53475284576416 0 0 0
191 1 1 -7.132974147796631 15.759488105773926 -10.021893501281738 0 0 0
192 1 1 -4.795492649078369 15.110344886779785 -9.562707901000977 0 0 0
193 1 1 -2.3399558067321777 14.563559532165527 -8.871846199035645 0 0 0
194 1 1 0.1899959146976471 14.3864164352417 -8.273536682128906 0 0 0
195 1 1 2.54917573928833 13.99930191040039 -7.363724708557129 0 0 0
196 1 1 4.542003631591797 13.382884979248047 -5.857334613800049 0 0 0
197 1 1 4.041233062744141 14.125844955444336 -3.454970598220825 0 0 0
198 1 1 3.2376317977905273 15.103325843811035 -1.268282413482666 0 0 0
199 1 1 2.610175132751465 15.766340255737305 1.181400179862976 0 0 0
200 1 1 2.963121175765991 15.578426361083984 3.500609874725342 0 0 0
201 1 1 3.7057087421417236 15.628429412841797 5.7929368019104 0 0 0
202 1 1 3.860403299331665 15.560685157775879 8.066004753112793 0 0 0
203 1 1 4.266154766082764 14.493034362792969 10.342618942260742 0 0 0
204 1 1 4.013860702514648 13.632092475891113 12.652953147888184 0 0 0
205 1 1 3.122959613800049 13.780144691467285 14.813714027404785 0 0 0
206 1 1 2.7406604290008545 14.20948600769043 17.122520446777344 0 0 0
207 1 1 1.9514448642730713 11.980101585388184 18.120466232299805 0 0 0
208 1 1 1.2441470623016357 9.851251602172852 18.12374496459961 0 0 0
209 1 1 0.46039801836013794 7.723507881164551 16.84722328186035 0 0 0
210 1 1 -0.46884670853614807 5.925253391265869 15.189245223999023 0 0 0
211 1 1 -1.3507944345474243 4.041022777557373 13.617522239685059 0 0 0
212 1 1 0.06194330006837845 3.1336262226104736 11.582687377929688 0 0 0
213 1 1 -0.5490342378616333 3.364844560623169 9.048759460449219 0 0 0
214 1 1 -1.071783185005188 3.581083059310913 6.507710933685303 0 0 0
215 1 1 -0.30714747309684753 2.3882148265838623 4.221696853637695 0 0 0
216 1 1 0.44047507643699646 1.3300800323486328 2.0214154720306396 0 0 0
217 1 1 1.1554882526397705 0.2657029330730438 -0.28594905138015747 0 0 0
218 1 1 0.24210134148597717 0.6949869990348816 -2.6175804138183594 0 0 0
219 1 1 -1.0432953834533691 0.8983575105667114 -4.857154369354248 0 0 0
220 1 1 -2.369447708129883 1.200420618057251 -6.99985933303833 0 0 0
221 1 1 -2.6258115768432617 -0.46359649300575256 -8.880810737609863 0 0 0
222 1 1 -2.0623536109924316 -1.9041999578475952 -10.62031078338623 0 0 0
223 1 1 -0.32036712765693665 -3.6398849487304688 -11.624317169189453 0 0 0
224 1 1 2.151318311691284 -4.064321041107178 -10.871882438659668 0 0 0
225 1 1 4.258444309234619 -3.2947113513946533 -10.536052703857422 0 0 0
226 1 1 6.376596927642822 -2.2798798084259033 -10.820802688598633 0 0 0
227 1 1 8.895751953125 -2.2486507892608643 -11.518274307250977 0 0 0
228 1 1 11.309470176696777 -2.3575010299682617 -12.29784107208252 0 0 0
229 1 1 13.584758758544922 -2.336286783218384 -13.4634370803833 0 0 0
230 1 1 15.49300479888916 -1.7392135858535767 -14.872638702392578 0 0 0
231 1 1 17.3812255859375 -0.8818787336349487 -16.515180587768555 0 0 0
232 1 1 18.15216064453125 -2.0231680870056152 -18.665283203125 0 0 0
233 1 1 19.141250610351562 -3.133518934249878 -20.699951171875 0 0 0
234 1 1 19.59449005126953 -4.326410293579102 -22.8801326751709 0 0 0
235 1 1 21.429224014282227 -4.452259540557861 -24.713470458984375 0 0 0
236 1 1 21.989105224609375 -2.9777438640594482 -26.761926651000977 0 0 0
237 1 1 22.95158576965332 -1.3298712968826294 -28.505891799926758 0 0 0
238 1 1 24.671018600463867 -1.7585152387619019 -30.35092544555664 0 0 0
239 1 1 25.857725143432617 -2.8072853088378906 -32.349761962890625 0 0 0
240 1 1 27.207691192626953 -1.4332715272903442 -34.07027816772461 0 0 0
241 1 1 18.048828125 -22.116727828979492 5.902730464935303 0 0 0
242 1 1 18.408994674682617 -20.785493850708008 4.007590293884277 0 0 0
243 1 1 18.216596603393555 -19.810457229614258 1.6012049913406372 0 0 0
244 1 1 16.03453254699707 -20.028579711914062 0.08505761623382568 0 0 0
245 1 1 14.629590034484863 -21.14330291748047 -1.339093804359436 0 0 0
246 1 1 13.133505821228027 -22.815805435180664 -1.9275751113891602 0 0 0
247 1 1 12.56615924835205 -23.934972763061523 0.41214901208877563 0 0 0
248 1 1 12.482522010803223 -24.335407257080078 2.821117401123047 0 0 0
249 1 1 13.633742332458496 -24.10738182067871 5.088134765625 0 0 0
250 1 1 13.033658027648926 -22.973278045654297 7.006308555603027 0 0 0
251 1 1 12.317923545837402 -21.983020782470703 9.101019859313965 0 0 0
252 1 1 12.256448745727539 -20.235458374023438 11.06158447265625 0 0 0
253 1 1 13.451433181762695 -17.989580154418945 11.080911636352539 0 0 0
254 1 1 14.707202911376953 -15.7681303024292 11.395021438598633 0 0 0
255 1 1 16.1983699798584 -13.6245756149292 11.432594299316406 0 0 0
256 1 1 18.329988479614258 -13.52282428741455 10.531682014465332 0 0 0
257 1 1 19.966272354125977 -13.555949211120605 8.53709602355957 0 0 0
258 1 1 20.7017879486084 -11.290526390075684 7.285219669342041 0 0 0
259 1 1 22.470947265625 -11.326434135437012 5.348772048950195 0 0 0
260 1 1 24.49072265625 -11.30760669708252 4.549905776977539 0 0 0
261 1 1 27.00806999206543 -10.782147407531738 4.548478126525879 0 0 0
262 1 1 29.11943244934082 -10.964134216308594 3.575707197189331 0 0 0
263 1 1 29.725915908813477 -13.564860343933105 3.7143394947052 0 0 0
264 1 1 31.796449661254883 -14.5195951461792 2.4027483463287354 0 0 0
265 1 1 33.987403869628906 -15.420654296875 1.3414852619171143 0 0 0
266 1 1 35.6174430847168 -17.434402465820312 0.849838137626648 0 0 0
267 1 1 37.67853927612305 -18.81934928894043 0.36879482865333557 0 0 0
268 1 1 38.6051139831543 -20.84575653076172 0.9577727317810059 0 0 0
269 1 1 39.02878189086914 -23.181371688842773 1.7371611595153809 0 0 0
270 1 1 39.79033660888672 -25.521696090698242 2.7176637649536133 0 0 0
271 1 1 40.225093841552734 -25.92672348022461 5.254847526550293 0 0 0
272 1 1 40.2147102355957 -25.800554275512695 7.619852066040039 0 0 0
273 1 1 39.67771530151367 -24.418787002563477 9.67963695526123 0 0 0
274 1 1 39.76447677612305 -22.571334838867188 11.136565208435059 0 0 0
275 1 1 40.508975982666016 -20.320858001708984 11.88638973236084 0 0 0
276 1 1 42.19645690917969 -19.032485961914062 12.814401626586914 0 0 0
277 1 1 44.435237884521484 -18.77899169921875 13.984528541564941 0 0 0
278 1 1 46.621864318847656 -18.161279678344727 14.72341251373291 0 0 0
279 1 1 49.064388275146484 -17.247800827026367 14.723252296447754 0 0 0
280 1 1 51.44770812988281 -16.50162696838379 14.800968170166016 0 0 0
281 1 1 52.88024139404297 -14.756163597106934 14.863430976867676 0 0 0
282 1 1 53.347557067871094 -12.251228332519531 14.477032661437988 0 0 0
283 1 1 54.051483154296875 -9.877603530883789 13.767602920532227 0 0 0
284 1 1 52.034698486328125 -8.323923110961914 13.334635734558105 0 0 0
285 1 1 50.279144287109375 -6.946417331695557 14.143194198608398 0 0 0
286 1 1 48.979652404785156 -5.114671230316162 15.082015037536621 0 0 0
287 1 1 47.77824783325195 -2.9215097427368164 14.961780548095703 0 0 0
288 1 1 46.48154830932617 -0.7692673802375793 14.778009414672852 0 0 0
289 1 1 44.74967575073242 0.6315297484397888 15.18856143951416 0 0 0
290 1 1 42.317039489746094 0.9661527276039124 16.01863670349121 0 0 0
291 1 1 40.652427673339844 1.3263825178146362 17.699520111083984 0 0 0
292 1 1 39.687843322753906 2.0238406658172607 20.02694320678711 0 0 0
293 1 1 40.42201232910156 1.2682178020477295 22.482711791992188 0 0 0
294 1 1 41.522666931152344 0.7809594869613647 24.676870346069336 0 0 0
295 1 1 42.38880157470703 0.19798918068408966 26.998289108276367 0 0 0
296 1 1 43.70164489746094 0.010140178725123405 29.14785385131836 0 0 0
297 1 1 45.18348693847656 -0.08369196206331253 31.32038688659668 0 0 0
298 1 1 45.406982421875 1.8833801746368408 32.95942687988281 0 0 0
299 1 1 45.76598358154297 1.7643277645111084 35.536964416503906 0 0 0
300 1 1 45.72211456298828 2.0743658542633057 38.07655334472656 0 0 0
301 1 1 12.774369239807129 17.80345344543457 -5.90135383605957 0 0 0
302 1 1 12.254073143005371 15.497604370117188 -7.138200283050537 0 0 0
303 1 1 12.758564949035645 13.032822608947754 -6.397270679473877 0 0 0
304 1 1 13.346009254455566 10.604608535766602 -5.749781131744385 0 0 0
305 1 1 12.563035011291504 8.457098960876465 -7.012519359588623 0 0 0
306 1 1 11.29085636138916 6.715494632720947 -5.711801052093506 0 0 0
307 1 1 10.196220397949219 5.054375171661377 -4.061347961425781 0 0 0
308 1 1 8.424765586853027 4.449296474456787 -2.6064071655273438 0 0 0
309 1 1 6.296848773956299 4.484329700469971 -4.1535468101501465 0 0 0
310 1 1 4.228325843811035 4.7847466468811035 -5.676504135131836 0 0 0
311 1 1 2.3143560886383057 5.309410572052002 -7.338815212249756 0 0 0
312 1 1 0.1353006511926651 5.147555828094482 -8.35262680053711 0 0 0
313 1 1 -1.5267493724822998 4.325063705444336 -9.600695610046387 0 0 0
314 1 1 -2.8760714530944824 6.142704010009766 -10.08131217956543 0 0 0
315 1 1 -5.160053730010986 7.357809066772461 -10.165242195129395 0 0 0
316 1 1 -5.897430419921875 8.916945457458496 -8.628454208374023 0 0 0
317 1 1 -6.127074718475342 11.248823165893555 -7.58889627456665 0 0 0
318 1 1 -5.924299716949463 12.679705619812012 -5.877742290496826 0 0 0
319 1 1 -5.780468940734863 13.801133155822754 -3.930335521697998 0 0 0
320 1 1 -5.758586883544922 14.845200538635254 -1.7965608835220337 0 0 0
321 1 1 -5.921577453613281 13.386327743530273 0.13262201845645905 0 0 0
322 1 1 -5.68964147567749 12.289523124694824 2.082099199295044 0 0 0
323 1 1 -5.453401565551758 11.22645378112793 4.046941757202148 0 0 0
324 1 1 -5.941903591156006 10.604846000671387 6.470890998840332 0 0 0
325 1 1 -8.154252052307129 10.762703895568848 7.883492946624756 0 0 0
326 1 1 -10.180119514465332 10.317558288574219 9.524062156677246 0 0 0
327 1 1 -9.663467407226562 10.514888763427734 12.119121551513672 0 0 0
328 1 1 -8.20421028137207 8.654646873474121 12.421517372131348 0 0 0
329 1 1 -9.013338088989258 6.366572856903076 11.52660083770752 0 0 0
330 1 1 -9.013096809387207 5.656839847564697 9.006054878234863 0 0 0
331 1 1 -8.914114952087402 6.0815205574035645 6.789496421813965 0 0 0
332 1 1 -7.994500637054443 6.5600457191467285 4.7073588371276855 0 0 0
333 1 1 -7.13968563079834 6.946341037750244 2.604038953781128 0 0 0
334 1 1 -7.297562599182129 7.479801654815674 0.3915141224861145 0 0 0
335 1 1 -8.190147399902344 5.397691249847412 -0.745634913444519 0 0 0
336 1 1 -9.251490592956543 3.3279001712799072 -1.7630478143692017 0 0 0
337 1 1 -10.282536506652832 1.2642329931259155 -2.7782833576202393 0 0 0
338 1 1 -11.194681167602539 -0.9568175077438354 -3.526771306991577 0 0 0
339 1 1 -11.964564323425293 -3.074519634246826 -4.850393295288086 0 0 0
340 1 1 -14.32190990447998 -4.3224663734436035 -4.629902362823486 0 0 0
341 1 1 -16.01858901977539 -5.668274402618408 -3.804919481277466 0 0 0
342 1 1 -17.0316104888916 -6.97265100479126 -1.8466378450393677 0 0 0
343 1 1 -16.491741180419922 -6.679766654968262 0.6246351003646851 0 0 0
344 1 1 -16.1324520111084 -6.7848219871521 3.1802279949188232 0 0 0
345 1 1 -14.557124137878418 -6.524689197540283 4.945929527282715 0 0 0
346 1 1 -12.270803451538086 -6.215155124664307 6.18625020980835 0 0 0
347 1 1 -9.959627151489258 -6.175999164581299 7.31611442565918 0 0 0
348 1 1 -7.591271877288818 -5.883498191833496 8.320899963378906 0 0 0
349 1 1 -5.663186073303223 -7.429781436920166 7.759653091430664 0 0 0
350 1 1 -3.6374356746673584 -8.889851570129395 7.259951591491699 0 0 0
351 1 1 -1.7618193626403809 -10.236077308654785 6.325511455535889 0 0 0
352 1 1 0.3122797906398773 -11.405466079711914 5.341428279876709 0 0 0
353 1 1 2.2660768032073975 -12.534753799438477 4.265321731567383 0 0 0
354 1 1 4.175495624542236 -12.958671569824219 2.6122615337371826 0 0 0
355 1 1 6.611954212188721 -13.388397216796875 1.9365097284317017 0 0 0
356 1 1 8.876818656921387 -14.080724716186523 2.0712642669677734 0 0 0
357 1 1 11.034480094909668 -14.841609954833984 3.035949468612671 0 0 0
358 1 1 13.149234771728516 -15.859387397766113 3.2298123836517334 0 0 0
359 1 1 13.405229568481445 -17.75957489013672 4.561399936676025 0 0 0
360 1 1 12.88492202758789 -18.7121524810791 6.621027946472168 0 0 0
361 1 1 4.414770603179932 13.418296813964844 -11.785994529724121 0 0 0
362 1 1 6.030749320983887 13.744489669799805 -13.734395027160645 0 0 0
363 1 1 8.052227973937988 13.340176582336426 -14.817830085754395 0 0 0
364 1 1 10.283613204956055 12.227283477783203 -15.373705863952637 0 0 0
365 1 1 12.44386100769043 12.139493942260742 -16.014646530151367 0 0 0
366 1 1 14.564518928527832 13.395755767822266 -16.78107261657715 0 0 0
367 1 1 15.904767036437988 15.228610038757324 -15.602988243103027 0 0 0
368 1 1 15.3025484085083 17.41659927368164 -14.801212310791016 0 0 0
369 1 1 13.420028686523438 18.87222671508789 -13.784544944763184 0 0 0
370 1 1 11.399200439453125 20.145719528198242 -12.870633125305176 0 0 0
371 1 1 9.224896430969238 21.325199127197266 -12.013273239135742 0 0 0
372 1 1 7.1170654296875 19.925405502319336 -11.49550724029541 0 0 0
373 1 1 4.970539093017578 18.75288200378418 -10.823548316955566 0 0 0
374 1 1 2.9546127319335938 17.228618621826172 -10.562159538269043 0 0 0
375 1 1 0.5718076825141907 18.110492706298828 -10.422538757324219 0 0 0
376 1 1 -1.9396722316741943 18.555519104003906 -10.60109806060791 0 0 0
377 1 1 -4.370864391326904 19.0667781829834 -11.105971336364746 0 0 0
378 1 1 -6.743607997894287 19.743867874145508 -11.816377639770508 0 0 0
379 1 1 -9.046384811401367 20.5258731842041 -11.67744255065918 0 0 0
380 1 1 -10.827320098876953 21.490633010864258 -10.094727516174316 0 0 0
381 1 1 -12.849372863769531 22.302396774291992 -8.927511215209961 0 0 0
382 1 1 -14.603325843811035 22.98040771484375 -7.135315895080566 0 0 0
383 1 1 -16.479646682739258 23.510717391967773 -5.454841136932373 0 0 0
384 1 1 -16.065887451171875 22.519786834716797 -3.42293119430542 0 0 0
385 1 1 -14.71072006225586 21.982526779174805 -1.4041062593460083 0 0 0
386 1 1 -13.69677448272705 21.76978874206543 0.9801098704338074 0 0 0
387 1 1 -13.052346229553223 20.675214767456055 2.7037832736968994 0 0 0
388 1 1 -12.96657943725586 18.392480850219727 3.8014168739318848 0 0 0
389 1 1 -13.104196548461914 16.032859802246094 4.826651096343994 0 0 0
390 1 1 -13.878095626831055 14.027705192565918 6.128256320953369 0 0 0
391 1 1 -14.670445442199707 13.224279403686523 8.127949714660645 0 0 0
392 1 1 -14.335091590881348 12.497406959533691 10.347214698791504 0 0 0
393 1 1 -14.197405815124512 11.712435722351074 12.505395889282227 0 0 0
394 1 1 -12.711291313171387 13.071646690368652 14.112289428710938 0 0 0
395 1 1 -11.28866195678711 13.621376991271973 16.26621437072754 0 0 0
396 1 1 -10.540060997009277 15.749899864196777 17.60738182067871 0 0 0
397 1 1 -8.49910831451416 15.850679397583008 19.135061264038086 0 0 0
398 1 1 -5.981844425201416 16.078027725219727 19.766958236694336 0 0 0
399 1 1 -3.512752056121826 16.15108299255371 20.537899017333984 0 0 0
400 1 1 -1.505797266960144 15.137422561645508 20.884450912475586 0 0 0
401 1 1 -0.7090871334075928 13.084863662719727 21.763885498046875 0 0 0
402 1 1 0.2665325701236725 11.364754676818848 22.80162239074707 0 0 0
403 1 1 2.22310733795166 10.154162406921387 23.6544132232666 0 0 0
404 1 1 4.1812615394592285 9.55173110961914 25.213699340820312 0 0 0
405 1 1 5.802494049072266 8.258306503295898 26.2463436126709 0 0 0
406 1 1 7.555453777313232 6.394425392150879 26.385326385498047 0 0 0
407 1 1 8.193296432495117 4.182588577270508 26.792537689208984 0 0 0
408 1 1 7.64841890335083 1.6435496807098389 27.25714683532715 0 0 0
409 1 1 8.247058868408203 -0.5192581415176392 27.87058448791504 0 0 0
410 1 1 10.004264831542969 -2.4127449989318848 28.688722610473633 0 0 0
411 1 1 11.806905746459961 -3.4835309982299805 27.17377471923828 0 0 0
412 1 1 13.719273567199707 -2.1132547855377197 26.10596466064453 0 0 0
413 1 1 15.514361381530762 -0.6973373889923096 24.944517135620117 0 0 0
414 1 1 17.18153953552246 0.5760958194732666 23.595359802246094 0 0 0
415 1 1 18.60795783996582 1.867121696472168 21.981369018554688 0 0 0
416 1 1 19.53414535522461 3.7699203491210938 20.81838035583496 0 0 0
417 1 1 18.333576202392578 5.337558269500732 19.155282974243164 0 0 0
418 1 1 17.708097457885742 7.164407253265381 17.57790756225586 0 0 0
419 1 1 17.259187698364258 9.188807487487793 16.015926361083984 0 0 0
420 1 1 18.065919876098633 11.547971725463867 15.073419570922852 0 0 0
421 1 1 4.025317668914795 42.11473083496094 -11.376790046691895 0 0 0
422 1 1 4.80002498626709 39.72746658325195 -11.932360649108887 0 0 0
423 1 1 4.390995025634766 38.674129486083984 -14.291681289672852 0 0 0
424 1 1 5.637191295623779 36.585426330566406 -15.10241985321045 0 0 0
425 1 1 6.901278495788574 34.41611099243164 -15.800140380859375 0 0 0
426 1 1 6.499385356903076 31.96086883544922 -15.000930786132812 0 0 0
427 1 1 5.712063312530518 30.470582962036133 -13.47283935546875 0 0 0
428 1 1 3.7890098094940186 29.217824935913086 -12.341806411743164 0 0 0
429 1 1 1.765306830406189 27.803638458251953 -11.71495246887207 0 0 0
430 1 1 -0.08225169777870178 28.35706329345703 -10.2107572555542 0 0 0
431 1 1 -1.8193514347076416 26.70789909362793 -10.092569351196289 0 0 0
432 1 1 -3.8167152404785156 25.419628143310547 -9.920794486999512 0 0 0
433 1 1 -5.621872901916504 24.020639419555664 -8.920710563659668 0 0 0
434 1 1 -7.545928001403809 22.596664428710938 -8.155592918395996 0 0 0
435 1 1 -8.870320320129395 22.814363479614258 -5.841252326965332 0 0 0
436 1 1 -11.15775203704834 21.627403259277344 -5.30652379989624 0 0 0
437 1 1 -11.165057182312012 20.566333770751953 -3.0262668132781982 0 0 0
438 1 1 -10.019309043884277 19.676847457885742 -1.253886342048645 0 0 0
439 1 1 -8.954360008239746 18.189289093017578 0.08145070821046829 0 0 0
440 1 1 -8.729514122009277 16.748600006103516 1.8714847564697266 0 0 0
441 1 1 -9.432928085327148 15.213147163391113 3.5071048736572266 0 0 0
442 1 1 -9.7451171875 12.692779541015625 3.939173936843872 0 0 0
443 1 1 -10.28275203704834 11.176520347595215 1.9681761264801025 0 0 0
444 1 1 -9.761991500854492 10.39193058013916 -0.07133370637893677 0 0 0
445 1 1 -9.455081939697266 10.765865325927734 -2.388374090194702 0 0 0
446 1 1 -9.998233795166016 11.416114807128906 -4.859829425811768 0 0 0
447 1 1 -10.287529945373535 12.172720909118652 -7.337553024291992 0 0 0
448 1 1 -12.417535781860352 12.81692123413086 -7.908674240112305 0 0 0
449 1 1 -14.822617530822754 12.501872062683105 -8.731480598449707 0 0 0
450 1 1 -16.957923889160156 11.805464744567871 -10.054914474487305 0 0 0
451 1 1 -17.149566650390625 9.622831344604492 -11.40794563293457 0 0 0
452 1 1 -19.2619571685791 8.164613723754883 -11.004598617553711 0 0 0
453 1 1 -21.427413940429688 6.96518611907959 -10.467802047729492 0 0 0
454 1 1 -23.1080379486084 6.120968818664551 -8.857671737670898 0 0 0
455 1 1 -24.1937198638916 6.128623008728027 -6.521994113922119 0 0 0
456 1 1 -23.79348373413086 4.364948749542236 -4.694744110107422 0 0 0
457 1 1 -25.482301712036133 4.209414005279541 -2.9085023403167725 0 0 0
458 1 1 -26.604612350463867 4.577869415283203 -0.9366112947463989 0 0 0
459 1 1 -27.339534759521484 3.471407175064087 1.2642419338226318 0 0 0
460 1 1 -27.96065902709961 3.2359259128570557 3.4548139572143555 0 0 0
461 1 1 -29.02634048461914 2.9303994178771973 5.463346004486084 0 0 0
462 1 1 -30.61173439025879 1.6965711116790771 7.193476676940918 0 0 0
463 1 1 -32.218849182128906 0.6608479619026184 8.92072582244873 0 0 0
464 1 1 -31.60256576538086 -1.549344778060913 9.496912002563477 0 0 0
465 1 1 -30.241161346435547 -3.4334092140197754 10.361613273620605 0 0 0
466 1 1 -27.888790130615234 -3.4504916667938232 11.307784080505371 0 0 0
467 1 1 -25.708406448364258 -3.7490322589874268 10.893486022949219 0 0 0
468 1 1 -23.649744033813477 -3.990571975708008 9.340232849121094 0 0 0
469 1 1 -23.95624351501465 -4.5394768714904785 6.840610504150391 0 0 0
470 1 1 -24.624561309814453 -5.358436107635498 4.619848728179932 0 0 0
471 1 1 -24.415496826171875 -5.353030681610107 2.3198466300964355 0 0 0
472 1 1 -23.875934600830078 -4.332352161407471 0.13012124598026276 0 0 0
473 1 1 -24.326290130615234 -3.534463882446289 -1.9063925743103027 0 0 0
474 1 1 -24.98062515258789 -2.9941184520721436 -4.138050079345703 0 0 0
475 1 1 -23.748544692993164 -1.3148349523544312 -5.243276119232178 0 0 0
476 1 1 -22.456005096435547 0.3214534521102905 -6.156124591827393 0 0 0
477 1 1 -20.516576766967773 1.7735345363616943 -6.273143291473389 0 0 0
478 1 1 -19.681949615478516 3.851409673690796 -6.256981372833252 0 0 0
479 1 1 -18.710933685302734 5.741170883178711 -6.712896823883057 0 0 0
480 1 1 -16.814882278442383 7.5338358879089355 -6.406952381134033 0 0 0
481 1 1 -2.219069480895996 -28.001508712768555 -7.072418689727783 0 0 0
482 1 1 0.017606522887945175 -27.711488723754883 -6.605111598968506 0 0 0
483 1 1 2.157728672027588 -27.951635360717773 -5.5923662185668945 0 0 0
484 1 1 4.642869472503662 -28.15986442565918 -4.820662498474121 0 0 0
485 1 1 4.485655784606934 -28.571189880371094 -2.6136720180511475 0 0 0
486 1 1 4.111801624298096 -28.069181442260742 -0.12274088710546494 0 0 0
487 1 1 4.115316390991211 -27.81134605407715 2.4397666454315186 0 0 0
488 1 1 4.181107997894287 -27.717262268066406 5.044596195220947 0 0 0
489 1 1 4.832965850830078 -27.406906127929688 7.520261287689209 0 0 0
490 1 1 6.415745258331299 -27.2468318939209 9.313779830932617 0 0 0
491 1 1 8.666971206665039 -26.7459716796875 10.5731201171875 0 0 0
492 1 1 10.87368106842041 -27.27513885498047 9.624711990356445 0 0 0
493 1 1 12.3539400100708 -27.763437271118164 7.847482204437256 0 0 0
494 1 1 12.970504760742188 -28.64318084716797 5.596329212188721 0 0 0
495 1 1 13.725101470947266 -29.46132469177246 3.255434274673462 0 0 0
496 1 1 12.138039588928223 -29.356849670410156 1.3002541065216064 0 0 0
497 1 1 10.617838859558105 -29.173702239990234 -0.66877681016922 0 0 0
498 1 1 9.012495994567871 -28.847415924072266 -2.70670485496521 0 0 0
499 1 1 8.714279174804688 -26.47977638244629 -3.8784067630767822 0 0 0
500 1 1 8.396966934204102 -25.962358474731445 -6.46237325668335 0 0 0
501 1 1 8.843498229980469 -26.321285247802734 -8.949252128601074 0 0 0
502 1 1 9.470685958862305 -27.669654846191406 -10.92952823638916 0 0 0
503 1 1 11.944662094116211 -28.297883987426758 -11.357222557067871 0 0 0
504 1 1 14.211583137512207 -28.808818817138672 -12.394915580749512 0 0 0
505 1 1 16.192626953125 -28.411285400390625 -13.43917179107666 0 0 0
506 1 1 17.78692626953125 -26.68685531616211 -14.312784194946289 0 0 0
507 1 1 19.400245666503906 -24.844043731689453 -14.997002601623535 0 0 0
508 1 1 21.391416549682617 -23.763742446899414 -14.806550025939941 0 0 0
509 1 1 23.74815559387207 -23.11456298828125 -14.958290100097656 0 0 0
510 1 1 25.426166534423828 -21.523508071899414 -15.191200256347656 0 0 0
511 1 1 26.48423194885254 -19.157024383544922 -14.876994132995605 0 0 0
512 1 1 25.22013282775879 -17.32553482055664 -13.457573890686035 0 0 0
513 1 1 23.89246940612793 -15.945507049560547 -11.987042427062988 0 0 0
514 1 1 22.606157302856445 -14.473413467407227 -10.189756393432617 0 0 0
515 1 1 21.0556697845459 -13.4570894241333 -8.408748626708984 0 0 0
516 1 1 18.704248428344727 -12.44847583770752 -8.752302169799805 0 0 0
517 1 1 16.884672164916992 -12.755284309387207 -7.039306640625 0 0 0
518 1 1 14.86383056640625 -12.728876113891602 -5.40286922454834 0 0 0
519 1 1 13.1857271194458 -12.543473243713379 -3.4753308296203613 0 0 0
520 1 1 13.620407104492188 -10.591606140136719 -2.153218984603882 0 0 0
521 1 1 14.71998119354248 -8.636496543884277 -1.7030940055847168 0 0 0
522 1 1 16.833759307861328 -8.652206420898438 -2.7936012744903564 0 0 0
523 1 1 18.823198318481445 -9.622109413146973 -3.6238203048706055 0 0 0
524 1 1 20.8824462890625 -10.523935317993164 -4.260379314422607 0 0 0
525 1 1 23.402772903442383 -10.35660171508789 -4.493931770324707 0 0 0
526 1 1 25.8671817779541 -10.39828109741211 -4.683488845825195 0 0 0
527 1 1 28.413537979125977 -10.820978164672852 -4.897331714630127 0 0 0
528 1 1 30.68259620666504 -10.652031898498535 -5.771790981292725 0 0 0
529 1 1 32.51713180541992 -9.059624671936035 -4.878262996673584 0 0 0
530 1 1 32.48575973510742 -6.548580169677734 -5.126932621002197 0 0 0
531 1 1 30.694324493408203 -6.385392189025879 -3.6696865558624268 0 0 0
532 1 1 29.087268829345703 -6.87715482711792 -2.1636431217193604 0 0 0
533 1 1 28.233600616455078 -6.38758659362793 -0.016819976270198822 0 0 0
534 1 1 29.8682804107666 -6.387537002563477 1.5489795207977295 0 0 0
535 1 1 31.557222366333008 -7.4636149406433105 3.21750807762146 0 0 0
536 1 1 32.844871520996094 -9.810872077941895 3.1801834106445312 0 0 0
537 1 1 34.89244842529297 -11.427241325378418 3.517618417739868 0 0 0
538 1 1 36.85511016845703 -13.06268310546875 3.392192840576172 0 0 0
539 1 1 38.6270637512207 -14.783156394958496 2.8914296627044678 0 0 0
540 1 1 40.32841491699219 -16.497909545898438 2.223651170730591 0 0 0
541 1 1 -29.99336814880371 -10.44516372680664 39.86898422241211 0 0 0
542 1 1 -29.010578155517578 -9.467005729675293 37.70354080200195 0 0 0
543 1 1 -28.784372329711914 -8.063141822814941 35.8325080871582 0 0 0
544 1 1 -29.450456619262695 -5.755856513977051 34.60667037963867 0 0 0
545 1 1 -28.066909790039062 -3.5428457260131836 34.806617736816406 0 0 0
546 1 1 -29.156635284423828 -1.254942774772644 33.98491668701172 0 0 0
547 1 1 -29.830236434936523 0.2505631148815155 32.344356536865234 0 0 0
548 1 1 -27.714094161987305 0.7393873333930969 30.96530532836914 0 0 0
549 1 1 -27.522701263427734 1.8081231117248535 28.67695426940918 0 0 0
550 1 1 -27.205442428588867 3.0299599170684814 26.41891860961914 0 0 0
551 1 1 -27.003374099731445 4.416562080383301 24.13584327697754 0 0 0
552 1 1 -26.14267349243164 3.3168838024139404 21.923276901245117 0 0 0
553 1 1 -25.27904510498047 2.550722360610962 19.64920425415039 0 0 0
554 1 1 -26.318012237548828 2.661210536956787 17.24114227294922 0 0 0
555 1 1 -26.377399444580078 4.851752281188965 16.494691848754883 0 0 0
556 1 1 -28.857872009277344 5.721867561340332 16.486347198486328 0 0 0
557 1 1 -29.641157150268555 7.272441387176514 18.493501663208008 0 0 0
558 1 1 -31.662790298461914 8.813075065612793 17.9934024810791 0 0 0
559 1 1 -33.527156829833984 9.516749382019043 17.07545280456543 0 0 0
560 1 1 -35.31802749633789 9.498903274536133 15.289261817932129 0 0 0
561 1 1 -35.02544403076172 8.045449256896973 13.133840560913086 0 0 0
562 1 1 -35.197975158691406 6.059521198272705 11.911958694458008 0 0 0
563 1 1 -35.749324798583984 3.580687999725342 11.42441463470459 0 0 0
564 1 1 -36.14048385620117 1.8144102096557617 9.965625762939453 0 0 0
565 1 1 -36.23108673095703 0.6055700182914734 7.699652671813965 0 0 0
566 1 1 -35.95750427246094 -1.126424789428711 6.078468322753906 0 0 0
567 1 1 -33.73362350463867 -1.8422139883041382 4.7991509437561035 0 0 0
568 1 1 -31.325029373168945 -2.3971469402313232 3.745732069015503 0 0 0
569 1 1 -29.615346908569336 -3.7657806873321533 5.283390522003174 0 0 0
570 1 1 -28.572072982788086 -5.649885654449463 6.473796367645264 0 0 0
571 1 1 -27.982421875 -8.084589958190918 7.3037238121032715 0 0 0
572 1 1 -25.715213775634766 -8.949729919433594 8.126019477844238 0 0 0
573 1 1 -23.552322387695312 -8.7764892578125 8.949198722839355 0 0 0
574 1 1 -21.71918487548828 -8.131345748901367 7.205280780792236 0 0 0
575 1 1 -19.993925094604492 -7.610597133636475 5.448763370513916 0 0 0
576 1 1 -19.27492904663086 -5.463612079620361 4.723228454589844 0 0 0
577 1 1 -19.289575576782227 -3.350459098815918 3.103745698928833 0 0 0
578 1 1 -19.281286239624023 -3.707629680633545 0.47460928559303284 0 0 0
579 1 1 -18.164554595947266 -2.181424617767334 -0.9562098383903503 0 0 0
580 1 1 -17.161779403686523 -0.8626829981803894 -2.6481752395629883 0 0 0
581 1 1 -16.360286712646484 0.9259054660797119 -3.946803092956543 0 0 0
582 1 1 -14.695696830749512 2.8004512786865234 -4.533808708190918 0 0 0
583 1 1 -12.923685073852539 4.4373979568481445 -5.407586574554443 0 0 0
584 1 1 -11.351582527160645 6.396546363830566 -6.003085613250732 0 0 0
585 1 1 -8.929676055908203 6.694760799407959 -5.034605503082275 0 0 0
586 1 1 -6.678042411804199 7.565384864807129 -4.052181243896484 0 0 0
587 1 1 -4.752973556518555 8.635306358337402 -2.859903335571289 0 0 0
588 1 1 -2.982192277908325 9.942645072937012 -1.4829893112182617 0 0 0
589 1 1 -0.8976491689682007 11.196297645568848 -2.5917608737945557 0 0 0
590 1 1 -1.0192850828170776 13.502784729003906 -3.356733798980713 0 0 0
591 1 1 -1.3113884925842285 15.755532264709473 -3.7831528186798096 0 0 0
592 1 1 0.5881243944168091 17.34747886657715 -4.630066394805908 0 0 0
593 1 1 2.430996894836426 18.797027587890625 -5.552618026733398 0 0 0
594 1 1 4.3239264488220215 20.128562927246094 -6.468255519866943 0 0 0
595 1 1 6.448337554931641 21.383943557739258 -7.179065704345703 0 0 0
596 1 1 8.465478897094727 22.738080978393555 -7.87699556350708 0 0 0
597 1 1 9.77232837677002 24.725093841552734 -8.470721244812012 0 0 0
598 1 1 11.198426246643066 26.190723419189453 -9.488171577453613 0 0 0
599 1 1 12.976959228515625 26.70639419555664 -11.188529014587402 0 0 0
600 1 1 15.562190055847168 26.29156494140625 -11.062688827514648 0 0 0
601 1 1 -32.703426361083984 6.304030895233154 1.5069674253463745 0 0 0
602 1 1 -32.397884368896484 6.494352340698242 3.9097304344177246 0 0 0
603 1 1 -32.083282470703125 7.0435662269592285 6.2187066078186035 0 0 0
604 1 1 -32.017921447753906 6.6421380043029785 8.770683288574219 0 0 0
605 1 1 -30.452980041503906 5.022062301635742 9.967019081115723 0 0 0
606 1 1 -28.36971092224121 6.078031539916992 10.366292953491211 0 0 0
607 1 1 -26.30687713623047 4.6813483238220215 9.486446380615234 0 0 0
608 1 1 -24.962839126586914 4.566693305969238 7.173363208770752 0 0 0
609 1 1 -23.88248634338379 4.272281169891357 4.879173278808594 0 0 0
610 1 1 -23.044218063354492 4.900660037994385 2.765536308288574 0 0 0
611 1 1 -22.840511322021484 6.478497505187988 0.8439362645149231 0 0 0
612 1 1 -23.256498336791992 8.17623519897461 -0.9975109696388245 0 0 0
613 1 1 -23.76993179321289 9.657191276550293 -2.9608757495880127 0 0 0
614 1 1 -23.572799682617188 12.371649742126465 -3.000225067138672 0 0 0
615 1 1 -23.570138931274414 13.784903526306152 -5.227546215057373 0 0 0
616 1 1 -21.18878936767578 14.518253326416016 -6.001305103302002 0 0 0
617 1 1 -18.902870178222656 14.418706893920898 -5.919093132019043 0 0 0
618 1 1 -16.616514205932617 13.58063793182373 -5.2520341873168945 0 0 0
619 1 1 -14.415140151977539 12.881972312927246 -3.9787721633911133 0 0 0
620 1 1 -14.162359237670898 10.427695274353027 -3.209991693496704 0 0 0
621 1 1 -13.77371597290039 8.142158508300781 -2.306567668914795 0 0 0
622 1 1 -13.433469772338867 5.943116188049316 -1.158997654914856 0 0 0
623 1 1 -13.442501068115234 4.031746864318848 0.19328458607196808 0 0 0
624 1 1 -14.16771125793457 2.1609010696411133 1.2527114152908325 0 0 0
625 1 1 -16.604665756225586 1.9909758567810059 1.9317922592163086 0 0 0
626 1 1 -19.02627944946289 1.4219497442245483 2.660282611846924 0 0 0
627 1 1 -20.64471435546875 0.5105413198471069 4.188871383666992 0 0 0
628 1 1 -21.473182678222656 0.7338973879814148 6.365688323974609 0 0 0
629 1 1 -21.64842414855957 0.9216063022613525 8.69740104675293 0 0 0
630 1 1 -22.361621856689453 0.33451536297798157 10.837404251098633 0 0 0
631 1 1 -23.451433181762695 0.7384582161903381 13.065801620483398 0 0 0
632 1 1 -22.03412437438965 2.2035675048828125 14.393904685974121 0 0 0
633 1 1 -20.422624588012695 2.6507887840270996 16.33070182800293 0 0 0
634 1 1 -17.95210075378418 1.9074262380599976 16.108802795410156 0 0 0
635 1 1 -15.497642517089844 1.2424331903457642 15.818387031555176 0 0 0
636 1 1 -13.210680961608887 0.517124354839325 15.123779296875 0 0 0
637 1 1 -11.135804176330566 -0.6916468739509583 14.192535400390625 0 0 0
638 1 1 -9.120528221130371 -1.896659255027771 13.260855674743652 0 0 0
639 1 1 -6.92020845413208 -2.8713104724884033 12.368902206420898 0 0 0
640 1 1 -4.666940689086914 -3.6706483364105225 11.34175968170166 0 0 0
641 1 1 -2.5628886222839355 -4.929701328277588 10.472665786743164 0 0 0
642 1 1 -0.6258004307746887 -6.093847274780273 9.370162010192871 0 0 0
643 1 1 1.3799479007720947 -7.473936080932617 8.600968360900879 0 0 0
644 1 1 3.212376356124878 -9.223949432373047 8.350526809692383 0 0 0
645 1 1 4.8542046546936035 -11.191849708557129 8.19670295715332 0 0 0
646 1 1 6.689847946166992 -12.981008529663086 7.745828151702881 0 0 0
647 1 1 7.655362129211426 -14.793806076049805 6.608175277709961 0 0 0
648 1 1 7.923886775970459 -16.997127532958984 8.074464797973633 0 0 0
649 1 1 7.903281211853027 -18.884592056274414 9.684401512145996 0 0 0
650 1 1 7.841034412384033 -20.877241134643555 11.294098854064941 0 0 0
651 1 1 8.317726135253906 -22.83057403564453 12.922722816467285 0 0 0
652 1 1 9.070250511169434 -24.74712562561035 14.478439331054688 0 0 0
653 1 1 10.92603874206543 -26.594575881958008 14.54134464263916 0 0 0
654 1 1 12.708110809326172 -28.166362762451172 13.719518661499023 0 0 0
655 1 1 14.58450984954834 -29.681795120239258 12.73703384399414 0 0 0
656 1 1 16.704792022705078 -31.104318618774414 12.074651718139648 0 0 0
657 1 1 18.94076156616211 -31.235057830810547 12.732839584350586 0 0 0
658 1 1 21.185991287231445 -30.46216583251953 13.73489761352539 0 0 0
659 1 1 23.470890045166016 -30.487485885620117 14.100205421447754 0 0 0
660 1 1 24.909303665161133 -31.693132400512695 15.84521198272705 0 0 0
661 1 1 -10.031671524047852 40.331153869628906 2.5504043102264404 0 0 0
662 1 1 -9.367915153503418 37.856258392333984 1.581920862197876 0 0 0
663 1 1 -8.100336074829102 35.71316909790039 0.8274496793746948 0 0 0
664 1 1 -7.161170959472656 33.429744720458984 0.03891913220286369 0 0 0
665 1 1 -5.972068786621094 31.269268035888672 -0.4731101393699646 0 0 0
666 1 1 -4.846951961517334 28.952211380004883 -0.8247889876365662 0 0 0
667 1 1 -3.1986379623413086 27.240646362304688 -0.6695957183837891 0 0 0
668 1 1 -1.9891033172607422 25.366470336914062 -0.7674128413200378 0 0 0
669 1 1 -1.5592248439788818 23.009618759155273 -1.6147575378417969 0 0 0
670 1 1 -0.2611021101474762 21.342248916625977 -1.9552829265594482 0 0 0
671 1 1 2.0551342964172363 20.189023971557617 -1.426140546798706 0 0 0
672 1 1 3.3994851112365723 22.02901268005371 -1.6178923845291138 0 0 0
673 1 1 3.9468913078308105 24.22439956665039 -2.6529746055603027 0 0 0
674 1 1 3.4361000061035156 24.66218376159668 -5.214138507843018 0 0 0
675 1 1 2.4355990886688232 24.381540298461914 -7.262029647827148 0 0 0
676 1 1 0.09177931398153305 23.401954650878906 -6.7127861976623535 0 0 0
677 1 1 -1.5325838327407837 21.65454864501953 -7.751452445983887 0 0 0
678 1 1 -2.003629207611084 19.405696868896484 -6.480062484741211 0 0 0
679 1 1 -3.8691413402557373 18.913833618164062 -4.786651134490967 0 0 0
680 1 1 -6.359384059906006 19.228431701660156 -5.324253559112549 0 0 0
681 1 1 -7.868438243865967 17.27025604248047 -5.988009452819824 0 0 0
682 1 1 -10.304787635803223 17.04781150817871 -4.980845928192139 0 0 0
683 1 1 -12.527833938598633 17.646589279174805 -6.161262035369873 0 0 0
684 1 1 -14.882699012756348 18.198871612548828 -7.1667656898498535 0 0 0
685 1 1 -17.131315231323242 18.93318748474121 -8.102519989013672 0 0 0
686 1 1 -19.24825668334961 19.409574508666992 -6.7560248374938965 0 0 0
687 1 1 -21.378511428833008 19.934892654418945 -5.570287704467773 0 0 0
688 1 1 -23.62291145324707 20.272186279296875 -4.304975986480713 0 0 0
689 1 1 -25.66388511657715 20.71395492553711 -2.9727375507354736 0 0 0
690 1 1 -28.223678588867188 20.41546058654785 -2.240226984024048 0 0 0
691 1 1 -28.80934715270996 18.823619842529297 -0.22817431390285492 0 0 0
692 1 1 -29.58391761779785 17.51188850402832 1.7979093790054321 0 0 0
693 1 1 -30.524934768676758 16.540802001953125 3.9554226398468018 0 0 0
694 1 1 -31.678544998168945 15.712239265441895 6.14929723739624 0 0 0
695 1 1 -31.949478149414062 13.376200675964355 6.169579029083252 0 0 0
696 1 1 -31.162033081054688 11.392068862915039 5.082624435424805 0 0 0
697 1 1 -31.66401481628418 11.286185264587402 2.432716131210327 0 0 0
698 1 1 -33.03555679321289 11.89594841003418 0.6190873384475708 0 0 0
699 1 1 -32.766754150390625 14.281081199645996 0.6550338268280029 0 0 0
700 1 1 -32.127220153808594 15.05899715423584 -1.7289953231811523 0 0 0
701 1 1 -31.865203857421875 16.37555503845215 -3.8503406047821045 0 0 0
702 1 1 -32.18548583984375 16.81999969482422 -6.13248872756958 0 0 0
703 1 1 -33.435726165771484 16.252534866333008 -8.28002643585205 0 0 0
704 1 1 -32.005210876464844 15.46446704864502 -9.996241569519043 0 0 0
705 1 1 -30.053091049194336 15.333025932312012 -11.39615249633789 0 0 0
706 1 1 -27.69139862060547 14.624909400939941 -12.100666046142578 0 0 0
707 1 1 -25.996145248413086 13.22230339050293 -10.682878494262695 0 0 0
708 1 1 -24.211009979248047 11.739611625671387 -9.584249496459961 0 0 0
709 1 1 -22.6860408782959 10.40002155303955 -8.029494285583496 0 0 0
710 1 1 -21.242475509643555 9.368451118469238 -6.210631370544434 0 0 0
711 1 1 -20.038562774658203 8.590729713439941 -3.99562668800354 0 0 0
712 1 1 -18.940916061401367 10.323626518249512 -2.2896716594696045 0 0 0
713 1 1 -17.541942596435547 11.880865097045898 -0.8681402802467346 0 0 0
714 1 1 -16.57349395751953 11.49398422241211 1.482073426246643 0 0 0
715 1 1 -14.337032318115234 10.519318580627441 1.485878825187683 0 0 0
716 1 1 -13.830472946166992 8.392083168029785 2.703131675720215 0 0 0
717 1 1 -13.853095054626465 6.3968963623046875 3.964461088180542 0 0 0
718 1 1 -13.926863670349121 4.64048957824707 5.225025177001953 0 0 0
719 1 1 -12.54050350189209 2.631598949432373 6.282439231872559 0 0 0
720 1 1 -12.38183307647705 0.15704487264156342 5.363198757171631 0 0 0
721 1 1 -60.520503997802734 -4.859653472900391 30.347450256347656 0 0 0
722 1 1 -59.646934509277344 -3.1075990200042725 28.53995704650879 0 0 0
723 1 1 -58.69750213623047 -1.466025948524475 26.786148071289062 0 0 0
724 1 1 -57.787776947021484 0.17199288308620453 25.027177810668945 0 0 0
725 1 1 -56.70233154296875 2.5116071701049805 25.318561553955078 0 0 0
726 1 1 -55.91679763793945 4.860722541809082 25.619060516357422 0 0 0
727 1 1 -54.378204345703125 6.27653694152832 24.048166275024414 0 0 0
728 1 1 -53.86940002441406 7.268243789672852 22.011478424072266 0 0 0
729 1 1 -52.544063568115234 5.577150344848633 20.452342987060547 0 0 0
730 1 1 -52.2455940246582 3.182285785675049 19.666324615478516 0 0 0
731 1 1 -50.67131805419922 1.549668788909912 19.083728790283203 0 0 0
732 1 1 -49.28185272216797 -0.18087893724441528 18.64419937133789 0 0 0
733 1 1 -47.91389083862305 -1.6745978593826294 17.511844635009766 0 0 0
734 1 1 -45.787376403808594 -2.352543592453003 16.237071990966797 0 0 0
735 1 1 -43.45856857299805 -2.937037229537964 15.345789909362793 0 0 0
736 1 1 -41.05073547363281 -3.536003828048706 14.753573417663574 0 0 0
737 1 1 -39.49103546142578 -2.122270107269287 13.24846363067627 0 0 0
738 1 1 -37.96769332885742 -2.6655125617980957 11.569676399230957 0 0 0
739 1 1 -36.53726577758789 -3.748382329940796 10.105719566345215 0 0 0
740 1 1 -34.58774948120117 -5.2877631187438965 9.942020416259766 0 0 0
741 1 1 -32.68473815917969 -6.946977615356445 9.568204879760742 0 0 0
742 1 1 -31.074668884277344 -9.015276908874512 9.708234786987305 0 0 0
743 1 1 -29.674104690551758 -11.109642028808594 9.998973846435547 0 0 0
744 1 1 -28.765045166015625 -13.340022087097168 9.68437385559082 0 0 0
745 1 1 -27.02617645263672 -13.639307022094727 7.85781717300415 0 0 0
746 1 1 -25.575885772705078 -13.049153327941895 6.3000054359436035 0 0 0
747 1 1 -24.497095108032227 -11.304879188537598 4.803729057312012 0 0 0
748 1 1 -23.370140075683594 -9.918224334716797 3.0104777812957764 0 0 0
749 1 1 -21.630640029907227 -9.473319053649902 1.6705342531204224 0 0 0
750 1 1 -19.49634552001953 -10.189050674438477 0.5676839351654053 0 0 0
751 1 1 -17.288578033447266 -11.187235832214355 -0.23938271403312683 0 0 0
752 1 1 -15.02781867980957 -11.320531845092773 -0.052376292645931244 0 0 0
753 1 1 -12.857341766357422 -11.087224960327148 -0.02060847356915474 0 0 0
754 1 1 -10.575153350830078 -11.840538024902344 -0.5470021367073059 0 0 0
755 1 1 -8.355417251586914 -12.857128143310547 -1.4004032611846924 0 0 0
756 1 1 -6.435509204864502 -13.719831466674805 -2.7989838123321533 0 0 0
757 1 1 -4.8650665283203125 -13.318498611450195 -4.341597557067871 0 0 0
758 1 1 -3.1656413078308105 -12.033416748046875 -5.786306381225586 0 0 0
759 1 1 -2.044419765472412 -9.786995887756348 -5.012712001800537 0 0 0
760 1 1 -1.5339431762695312 -7.849280834197998 -3.769606828689575 0 0 0
761 1 1 -1.877332091331482 -5.998610496520996 -2.0342960357666016 0 0 0
762 1 1 -2.1265835762023926 -3.9727694988250732 -0.5592132806777954 0 0 0
763 1 1 -2.9636456966400146 -1.9349472522735596 0.7715441584587097 0 0 0
764 1 1 -4.231849193572998 -0.5332511067390442 2.2703323364257812 0 0 0
765 1 1 -5.171476364135742 0.9062100648880005 3.566061496734619 0 0 0
766 1 1 -5.5298171043396 2.4981982707977295 5.165484428405762 0 0 0
767 1 1 -5.213900089263916 3.333432912826538 7.604442119598389 0 0 0
768 1 1 -4.890435695648193 4.2790446281433105 10.000760078430176 0 0 0
769 1 1 -4.736428260803223 5.505191802978516 12.322209358215332 0 0 0
770 1 1 -4.602057933807373 6.630234718322754 14.53559684753418 0 0 0
771 1 1 -5.42566442489624 7.302948474884033 16.456829071044922 0 0 0
772 1 1 -7.061039924621582 7.181525707244873 18.38520622253418 0 0 0
773 1 1 -8.07967472076416 6.76397180557251 20.4921875 0 0 0
774 1 1 -8.484378814697266 5.660966396331787 22.66154670715332 0 0 0
775 1 1 -9.366755485534668 4.65995979309082 24.834199905395508 0 0 0
776 1 1 -10.676277160644531 2.702942371368408 24.475629806518555 0 0 0
777 1 1 -12.119621276855469 0.8842474818229675 24.552766799926758 0 0 0
778 1 1 -13.314408302307129 -1.265831708908081 25.199220657348633 0 0 0
779 1 1 -14.689399719238281 -3.021076202392578 24.741056442260742 0 0 0
780 1 1 -15.314022064208984 -4.765718936920166 23.419944763183594 0 0 0
781 1 1 24.878185272216797 -10.116945266723633 -18.27129554748535 0 0 0
782 1 1 23.002031326293945 -8.447564125061035 -18.717411041259766 0 0 0
783 1 1 20.961681365966797 -7.464480876922607 -18.530611038208008 0 0 0
784 1 1 18.606796264648438 -7.089420795440674 -17.57318878173828 0 0 0
785 1 1 17.81182289123535 -5.522126197814941 -15.7606840133667 0 0 0
786 1 1 16.60041618347168 -6.431925296783447 -13.630648612976074 0 0 0
787 1 1 15.234634399414062 -7.010202884674072 -11.400467872619629 0 0 0
788 1 1 12.72331428527832 -6.489263534545898 -11.352252960205078 0 0 0
789 1 1 10.216663360595703 -6.144277572631836 -11.110088348388672 0 0 0
790 1 1 8.456600189208984 -7.191613674163818 -10.110474586486816 0 0 0
791 1 1 6.607058048248291 -8.226720809936523 -9.221647262573242 0 0 0
792 1 1 4.556036949157715 -8.207198143005371 -7.717459678649902 0 0 0
793 1 1 3.4612033367156982 -8.40711784362793 -5.647193908691406 0 0 0
794 1 1 3.1051342487335205 -8.993441581726074 -3.232154130935669 0 0 0
795 1 1 2.808108329772949 -9.72531795501709 -0.8479011654853821 0 0 0
796 1 1 1.4285398721694946 -9.347956657409668 0.9163087010383606 0 0 0
797 1 1 -0.5725126266479492 -8.278681755065918 2.1578762531280518 0 0 0
798 1 1 -2.8735740184783936 -7.7925591468811035 3.20037841796875 0 0 0
799 1 1 -4.106690883636475 -5.628735542297363 3.826369285583496 0 0 0
800 1 1 -5.709273815155029 -4.048200607299805 4.88692569732666 0 0 0
801 1 1 -7.5803446769714355 -2.5203897953033447 6.014802932739258 0 0 0
802 1 1 -8.444811820983887 -0.611944854259491 7.264618873596191 0 0 0
803 1 1 -8.528192520141602 1.162867784500122 8.823907852172852 0 0 0
804 1 1 -8.706472396850586 1.8261700868606567 11.265732765197754 0 0 0
805 1 1 -8.690882682800293 2.66294002532959 13.65927505493164 0 0 0
806 1 1 -9.29779052734375 4.111991882324219 15.356964111328125 0 0 0
807 1 1 -10.527055740356445 6.142210006713867 16.118011474609375 0 0 0
808 1 1 -11.750574111938477 8.382378578186035 16.66446304321289 0 0 0
809 1 1 -12.60499095916748 10.297138214111328 17.886137008666992 0 0 0
810 1 1 -12.961114883422852 11.814835548400879 19.861499786376953 0 0 0
811 1 1 -12.382527351379395 10.927793502807617 22.254613876342773 0 0 0
812 1 1 -10.237488746643066 11.595754623413086 22.940715789794922 0 0 0
813 1 1 -7.680909156799316 11.521671295166016 22.756601333618164 0 0 0
814 1 1 -5.299925804138184 11.813933372497559 21.81968879699707 0 0 0
815 1 1 -3.6552748680114746 10.005927085876465 20.901262283325195 0 0 0
816 1 1 -2.315589189529419 8.09675407409668 20.455995559692383 0 0 0
817 1 1 -0.6494852304458618 6.23723840713501 21.144439697265625 0 0 0
818 1 1 1.6366366147994995 5.9585113525390625 20.398481369018555 0 0 0
819 1 1 3.512627601623535 5.520936489105225 18.734994888305664 0 0 0
820 1 1 5.439608097076416 5.065005302429199 17.11426544189453 0 0 0
821 1 1 7.398248195648193 4.309200286865234 15.569291114807129 0 0 0
822 1 1 9.055441856384277 3.518354892730713 13.765181541442871 0 0 0
823 1 1 11.08824634552002 2.358628749847412 12.765028953552246 0 0 0
824 1 1 13.124584197998047 1.1078739166259766 11.739361763000488 0 0 0
825 1 1 13.45436954498291 0.3404422700405121 9.211874961853027 0 0 0
826 1 1 13.974902153015137 -0.4381597936153412 6.7733588218688965 0 0 0
827 1 1 14.213497161865234 -1.1677333116531372 4.387895584106445 0 0 0
828 1 1 14.923556327819824 -0.85151207447052 2.231307029724121 0 0 0
829 1 1 15.66873550415039 0.46955764293670654 0.02160750888288021 0 0 0
830 1 1 18.26859474182129 0.6319452524185181 -0.451295405626297 0 0 0
831 1 1 19.579261779785156 2.733647584915161 -1.031803846359253 0 0 0
832 1 1 21.212923049926758 4.632279872894287 -1.9040213823318481 0 0 0
833 1 1 21.868173599243164 5.9002156257629395 -0.054789286106824875 0 0 0
834 1 1 21.63521957397461 7.31809663772583 2.1211161613464355 0 0 0
835 1 1 21.482561111450195 6.255451679229736 4.372845649719238 0 0 0
836 1 1 21.250961303710938 5.649072647094727 6.571730613708496 0 0 0
837 1 1 21.234155654907227 5.354451656341553 8.824950218200684 0 0 0
838 1 1 22.008716583251953 3.8385226726531982 10.299032211303711 0 0 0
839 1 1 22.788597106933594 1.489263892173767 11.083035469055176 0 0 0
840 1 1 22.677021026611328 -0.49635669589042664 12.337544441223145 0 0 0
841 1 1 5.586587429046631 -6.501747131347656 4.8912553787231445 0 0 0
842 1 1 6.029182434082031 -6.92949914932251 2.322694778442383 0 0 0
843 1 1 7.444084167480469 -8.959824562072754 1.407177448272705 0 0 0
844 1 1 7.142606735229492 -9.757966995239258 -1.0566660165786743 0 0 0
845 1 1 8.683440208435059 -11.01341438293457 -2.8741488456726074 0 0 0
846 1 1 8.631062507629395 -13.593894958496094 -3.217137098312378 0 0 0
847 1 1 7.9959211349487305 -15.720337867736816 -2.837484836578369 0 0 0
848 1 1 7.187887668609619 -17.443288803100586 -1.6625720262527466 0 0 0
849 1 1 6.887367248535156 -18.948917388916016 0.39490750432014465 0 0 0
850 1 1 5.320193290710449 -18.094289779663086 2.257887125015259 0 0 0
851 1 1 3.7919869422912598 -17.39226722717285 4.151679039001465 0 0 0
852 1 1 2.3102593421936035 -17.008207321166992 6.43200159072876 0 0 0
853 1 1 2.7777321338653564 -15.197010040283203 7.875804424285889 0 0 0
854 1 1 0.6233476996421814 -13.904052734375 8.720295906066895 0 0 0
855 1 1 -1.1877810955047607 -12.490754127502441 9.835145950317383 0 0 0
856 1 1 -2.84409761428833 -11.07894515991211 11.09685230255127 0 0 0
857 1 1 -4.447818279266357 -9.45409107208252 12.310586929321289 0 0 0
858 1 1 -5.110960960388184 -7.443152904510498 13.842623710632324 0 0 0
859 1 1 -5.375181198120117 -6.501542568206787 15.84067153930664 0 0 0
860 1 1 -5.772965908050537 -6.624410629272461 18.14657211303711 0 0 0
861 1 1 -7.4690632820129395 -6.8885016441345215 19.995656967163086 0 0 0
862 1 1 -8.995725631713867 -6.046311378479004 21.485218048095703 0 0 0
863 1 1 -10.312125205993652 -4.0154829025268555 22.66622543334961 0 0 0
864 1 1 -9.179609298706055 -1.8913573026657104 22.685955047607422 0 0 0
865 1 1 -7.2380475997924805 -0.3016214370727539 23.321678161621094 0 0 0
866 1 1 -5.478808879852295 1.1828824281692505 22.94742774963379 0 0 0
867 1 1 -4.084442615509033 2.9336702823638916 22.029787063598633 0 0 0
868 1 1 -4.577888011932373 3.3880467414855957 19.858314514160156 0 0 0
869 1 1 -4.377697944641113 2.751713991165161 17.34855842590332 0 0 0
870 1 1 -4.599987506866455 1.6698600053787231 14.984367370605469 0 0 0
871 1 1 -4.563753128051758 0.8029072284698486 12.642273902893066 0 0 0
872 1 1 -3.9899191856384277 0.3375512659549713 10.144783020019531 0 0 0
873 1 1 -3.721770763397217 -0.9057596921920776 7.921117782592773 0 0 0
874 1 1 -1.6572504043579102 -2.2855968475341797 6.971625804901123 0 0 0
875 1 1 0.17822334170341492 -3.751189947128296 5.650147438049316 0 0 0
876 1 1 1.3829554319381714 -3.1532068252563477 3.4826087951660156 0 0 0
877 1 1 3.0772485733032227 -2.7928428649902344 1.5475302934646606 0 0 0
878 1 1 2.6427299976348877 -3.8430447578430176 -0.5596175193786621 0 0 0
879 1 1 1.6496423482894897 -3.9837698936462402 -2.985361337661743 0 0 0
880 1 1 0.9306269884109497 -4.175482273101807 -5.435158729553223 0 0 0
881 1 1 -0.5105177760124207 -5.0014472007751465 -7.193836688995361 0 0 0
882 1 1 -2.92236328125 -4.374764442443848 -6.393274784088135 0 0 0
883 1 1 -4.4520697593688965 -3.0661303997039795 -5.443678379058838 0 0 0
884 1 1 -5.195958614349365 -1.2449008226394653 -3.744642972946167 0 0 0
885 1 1 -5.9496378898620605 0.7417072057723999 -2.3306548595428467 0 0 0
886 1 1 -4.362114429473877 2.3430843353271484 -1.1879606246948242 0 0 0
887 1 1 -2.6802875995635986 3.9682376384735107 -0.03041038289666176 0 0 0
888 1 1 -3.2587075233459473 5.575124740600586 2.002896547317505 0 0 0
889 1 1 -1.5026626586914062 7.163259506225586 3.0989387035369873 0 0 0
890 1 1 -2.188833236694336 7.975155830383301 5.278041839599609 0 0 0
891 1 1 -2.5559403896331787 7.879892349243164 7.755259037017822 0 0 0
892 1 1 -3.268630266189575 8.408884048461914 9.848315238952637 0 0 0
893 1 1 -4.4989705085754395 9.982209205627441 11.433935165405273 0 0 0
894 1 1 -5.1357011795043945 12.45026683807373 11.057734489440918 0 0 0
895 1 1 -6.153945446014404 14.203253746032715 9.982966423034668 0 0 0
896 1 1 -8.026045799255371 15.486138343811035 8.657088279724121 0 0 0
897 1 1 -10.505431175231934 14.759791374206543 8.936336517333984 0 0 0
898 1 1 -11.502115249633789 16.45773696899414 10.759909629821777 0 0 0
899 1 1 -13.52859878540039 18.018033981323242 10.378037452697754 0 0 0
900 1 1 -13.559701919555664 20.039905548095703 11.831192970275879 0 0 0
901 1 1 -3.3772385120391846 -21.667329788208008 15.566670417785645 0 0 0
902 1 1 -5.673167705535889 -21.296344757080078 15.211832046508789 0 0 0
903 1 1 -7.437986373901367 -20.799612045288086 13.766094207763672 0 0 0
904 1 1 -8.5770263671875 -19.145225524902344 12.158370971679688 0 0 0
905 1 1 -9.338788032531738 -17.009117126464844 10.789900779724121 0 0 0
906 1 1 -9.262433052062988 -16.33083724975586 8.390161514282227 0 0 0
907 1 1 -9.154863357543945 -16.365856170654297 6.063467979431152 0 0 0
908 1 1 -6.904998302459717 -17.336139678955078 5.325408458709717 0 0 0
909 1 1 -6.31237268447876 -19.89177131652832 4.894320964813232 0 0 0
910 1 1 -5.0851616859436035 -21.544857025146484 5.924402713775635 0 0 0
911 1 1 -2.5335114002227783 -21.88825225830078 5.95082426071167 0 0 0
912 1 1 -0.5184646844863892 -20.39726448059082 6.27461051940918 0 0 0
913 1 1 -1.730450987815857 -18.14057731628418 6.966430187225342 0 0 0
914 1 1 -2.8636882305145264 -15.825281143188477 7.1761322021484375 0 0 0
915 1 1 -4.461785316467285 -14.204835891723633 7.640191555023193 0 0 0
916 1 1 -6.208519458770752 -12.777085304260254 8.777253150939941 0 0 0
917 1 1 -7.864789962768555 -11.270061492919922 10.078202247619629 0 0 0
918 1 1 -8.681397438049316 -9.458499908447266 11.666862487792969 0 0 0
919 1 1 -9.348542213439941 -7.590019226074219 13.26105785369873 0 0 0
920 1 1 -10.426126480102539 -5.925398826599121 14.855413436889648 0 0 0
921 1 1 -11.570713996887207 -4.473312854766846 16.556438446044922 0 0 0
922 1 1 -12.731179237365723 -3.0125885009765625 18.21930503845215 0 0 0
923 1 1 -13.63624382019043 -1.547375202178955 20.06671714782715 0 0 0
924 1 1 -14.862798690795898 0.30246058106422424 20.66973304748535 0 0 0
925 1 1 -16.219030380249023 2.4740285873413086 20.27350425720215 0 0 0
926 1 1 -17.28371810913086 4.724674701690674 19.759931564331055 0 0 0
927 1 1 -17.96111488342285 7.073808670043945 19.071842193603516 0 0 0
928 1 1 -19.0471134185791 9.326155662536621 18.617229461669922 0 0 0
929 1 1 -18.120439529418945 11.091256141662598 16.890727996826172 0 0 0
930 1 1 -17.154584884643555 13.178475379943848 15.783806800842285 0 0 0
931 1 1 -16.33083152770996 15.586843490600586 15.336328506469727 0 0 0
932 1 1 -15.29538631439209 17.940900802612305 15.533957481384277 0 0 0
933 1 1 -13.512240409851074 19.240930557250977 15.76036548614502 0 0 0
934 1 1 -10.986227035522461 19.59988784790039 16.014129638671875 0 0 0
935 1 1 -8.552653312683105 20.26396942138672 16.175792694091797 0 0 0
936 1 1 -7.000636100769043 19.954065322875977 18.16037940979004 0 0 0
937 1 1 -4.51564359664917 20.94174575805664 17.935958862304688 0 0 0
938 1 1 -2.440361261367798 19.806598663330078 19.09159278869629 0 0 0
939 1 1 0.009975960478186607 20.334375381469727 18.49141502380371 0 0 0
940 1 1 1.637140154838562 18.383604049682617 18.78615951538086 0 0 0
941 1 1 3.873486280441284 18.75330352783203 20.132238388061523 0 0 0
942 1 1 6.18160343170166 17.722816467285156 19.411869049072266 0 0 0
943 1 1 8.609406471252441 17.05744171142578 18.803424835205078 0 0 0
944 1 1 10.664892196655273 17.076730728149414 17.711950302124023 0 0 0
945 1 1 12.075579643249512 16.806541442871094 16.012989044189453 0 0 0
946 1 1 13.231918334960938 15.28305435180664 14.41495418548584 0 0 0
947 1 1 14.469693183898926 13.746519088745117 12.86626148223877 0 0 0
948 1 1 15.572138786315918 12.288825988769531 10.97873306274414 0 0 0
949 1 1 16.457077026367188 10.840360641479492 9.05333423614502 0 0 0
950 1 1 17.498188018798828 9.354232788085938 7.207773208618164 0 0 0
951 1 1 16.900819778442383 9.954442024230957 5.00900936126709 0 0 0
952 1 1 16.961124420166016 11.195433616638184 3.0764286518096924 0 0 0
953 1 1 18.00075340270996 12.656603813171387 1.2223074436187744 0 0 0
954 1 1 19.42200469970703 13.994030952453613 -0.45351770520210266 0 0 0
955 1 1 20.16420555114746 16.023195266723633 -1.8018121719360352 0 0 0
956 1 1 21.274383544921875 17.613252639770508 -3.2086923122406006 0 0 0
957 1 1 23.770538330078125 17.50335121154785 -2.5670368671417236 0 0 0
958 1 1 25.599599838256836 17.236309051513672 -1.0998862981796265 0 0 0
959 1 1 27.358715057373047 16.093971252441406 0.3503982126712799 0 0 0
960 1 1 28.12211799621582 13.973797798156738 -0.5095130205154419 0 0 0

Bonds

1 1 1 2
2 1 2 3
3 1 3 4
4 1 4 5
5 1 5 6
6 1 6 7
7 1 7 8
8 1 8 9
9 1 9 10
10 1 10 11
11 1 11 12
12 1 12 13
13 1 13 14
14 1 14 15
15 1 15 16
16 1 16 17
17 1 17 18
18 1 18 19
19 1 19 20
20 1 20 21
21 1 21 22
22 1 22 23
23 1 23 24
24 1 24 25
25 1 25 26
26 1 26 27
27 1 27 28
28 1 28 29
29 1 29 30
30 1 30 31
31 1 31 32
32 1 32 33
33 1 33 34
34 1 34 35
35 1 35 36
36 1 36 37
37 1 37 38
38 1 38 39
39 1 39 40
40 1 40 41
41 1 41 42
42 1 42 43
43 1 43 44
44 1 44 45
45 1 45 46
46 1 46 47
47 1 47 48
48 1 48 49
49 1 49 50
50 1 50 51
51 1 51 52
52 1 52 53
53 1 53 54
54 1 54 55
55 1 55 56
56 1 56 57
57 1 57 58
58 1 58 59
59 1 59 60
60 1 61 62
61 1 62 63
62 1 63 64
63 1 64 65
64 1 65 66
65 1 66 67
66 1 67 68
67 1 68 69
68 1 69 70
69 1 70 71
70 1 71 72
71 1 72 73
72 1 73 74
73 1 74 75
74 1 75 76
75 1 76 77
76 1 77 78
77 1 78 79
78 1 79 80
79 1 80 81
80 1 81 82
81 1 82 83
82 1 83 84
83 1 84 85
84 1 85 86
85 1 86 87
86 1 87 88
87 1 88 89
88 1 89 90
89 1 90 91
90 1 91 92
91 1 92 93
92 1 93 94
93 1 94 95
94 1 95 96
95 1 96 97
96 1 97 98
97 1 98 99
98 1 99 100
99 1 100 101
100 1 101 102
101 1 102 103
102 1 103 104
103 1 104 105
104 1 105 106
105 1 106 107
106 1 107 108
107 1 108 109
108 1 109 110
109 1 110 111
110 1 111 112
111 1 112 113
112 1 113 114
113 1 114 115
114 1 115 116
115 1 116 117
116 1 117 118
117 1 118 119
118 1 119 120
119 1 121 122
120 1 122 123
121 1 123 124
122 1 124 125
123 1 125 126
124 1 126 127
125 1 127 128
126 1 128 129
127 1 129 130
128 1 130 131
129 1 131 132
130 1 132 133
131 1 133 134
132 1 134 135
133 1 135 136
134 1 136 137
135 1 137 138
136 1 138 139
137 1 139 140
138 1 140 141
139 1 141 142
140 1 142 143
141 1 143 144
142 1 144 145
143 1 145 146
144 1 146 147
145 1 147 148
146 1 148 149
147 1 149 150
148 1 150 151
149 1 151 152
150 1 152 153
151 1 153 154
152 1 154 155
153 1 155 156
154 1 156 157
155 1 157 158
156 1 158 159
157 1 159 160
158 1 160 161
159 1 161 162
160 1 162 163
161 1 163 164
162 1 164 165
163 1 165 166
164 1 166 167
165 1 167 168
166 1 168 169
167 1 169 170
168 1 170 171
169 1 171 172
170 1 172 173
171 1 173 174
172 1 174 175
173 1 175 176
174 1 176 177
175 1 177 178
176 1 178 179
177 1 179 180
178 1 181 182
179 1 182 183
180 1 183 184
181 1 184 185
182 1 185 186
183 1 186 187
184 1 187 188
185 1 188 189
186 1 189 190
187 1 190 191
188 1 191 192
189 1 192 193
190 1 193 194
191 1 194 195
192 1 195 196
193 1 196 197
194 1 197 198
195 1 198 199
196 1 199 200
197 1 200 201
198 1 201 202
199 1 202 203
200 1 203 204
201 1 204 205
202 1 205 206
203 1 206 207
204 1 207 208
205 1 208 209
206 1 209 210
207 1 210 211
208 1 211 212
209 1 212 213
210 1 213 214
211 1 214 215
212 1 215 216
213 1 216 217
214 1 217 218
215 1 218 219
216 1 219 220
217 1 220 221
218 1 221 222
219 1 222 223
220 1 223 224
221 1 224 225
222 1 225 226
223 1 226 227
224 1 227 228
225 1 228 229
226 1 229 230
227 1 230 231
228 1 231 232
229 1 232 233
230 1 233 234
231 1 234 235
232 1 235 236
233 1 236 237
234 1 237 238
235 1 238 239
236 1 239 240
237 1 241 242
238 1 242 243
239 1 243 244
240 1 244 245
241 1 245 246
242 1 246 247
243 1 247 248
244 1 248 249
245 1 249 250
246 1 250 251
247 1 251 252
248 1 252 253
249 1 253 254
250 1 254 255
251 1 255 256
252 1 256 257
253 1 257 258
254 1 258 259
255 1 259 260
256 1 260 261
257 1 261 262
258 1 262 263
259 1 263 264
260 1 264 265
261 1 265 266
262 1 266 267
263 1 267 268
264 1 268 269
265 1 269 270
266 1 270 271
267 1 271 272
268 1 272 273
269 1 273 274
270 1 274 275
271 1 275 276
272 1 276 277
273 1 277 278
274 1 278 279
275 1 279 280
276 1 280 281
277 1 281 282
278 1 282 283
279 1 283 284
280 1 284 285
281 1 285 286
282 1 286 287
283 1 287 288
284 1 288 289
285 1 289 290
286 1 290 291
287 1 291 292
288 1 292 293
289 1 293 294
290 1 294 295
291 1 295 296
292 1 296 297
293 1 297 298
294 1 298 299
295 1 299 300
296 1 301 302
297 1 302 303
298 1 303 304
299 1 304 305
300 1 305 306
301 1 306 307
302 1 307 308
303 1 308 309
304 1 309 310
305 1 310 311
306 1 311 312
307 1 312 313
308 1 313 314
309 1 314 315
310 1 315 316
311 1 316 317
312 1 317 318
313 1 318 319
314 1 319 320
315 1 320 321
316 1 321 322
317 1 322 323
318 1 323 324
319 1 324 325
320 1 325 326
321 1 326 327
322 1 327 328
323 1 328 329
324 1 329 330
325 1 330 331
326 1 331 332
327 1 332 333
328 1 333 334
329 1 334 335
330 1 335 336
331 1 336 337
332 1 337 338
333 1 338 339
334 1 339 340
335 1 340 341
336 1 341 342
337 1 342 343
338 1 343 344
339 1 344 345
340 1 345 346
341 1 346 347
342 1 347 348
343 1 348 349
344 1 349 350
345 1 350 351
346 1 351 352
347 1 352 353
348 1 353 354
349 1 354 355
350 1 355 356
351 1 356 357
352 1 357 358
353 1 358 359
354 1 359 360
355 1 361 362
356 1 362 363
357 1 363 364
358 1 364 365
359 1 365 366
360 1 366 367
361 1 367 368
362 1 368 369
363 1 369 370
364 1 370 371
365 1 371 372
366 1 372 373
367 1 373 374
368 1 374 375
369 1 375 376
370 1 376 377
371 1 377 378
372 1 378 379
373 1 379 380
374 1 380 381
375 1 381 382
376 1 382 383
377 1 383 384
378 1 384 385
379 1 385 386
380 1 386 387
381 1 387 388
382 1 388 389
383 1 389 390
384 1 390 391
385 1 391 392
386 1 392 393
387 1 393 394
388 1 394 395
389 1 395 396
390 1 396 397
391 1 397 398
392 1 398 399
393 1 399 400
394 1 400 401
395 1 401 402
396 1 402 403
397 1 403 404
398 1 404 405
399 1 405 406
400 1 406 407
401 1 407 408
402 1 408 409
403 1 409 410
404 1 410 411
405 1 411 412
406 1 412 413
407 1 413 414
408 1 414 415
409 1 415 416
410 1 416 417
411 1 417 418
412 1 418 419
413 1 419 420
414 1 421 422
415 1 422 423
416 1 423 424
417 1 424 425
418 1 425 426
419 1 426 427
420 1 427 428
421 1 428 429
422 1 429 430
423 1 430 431
424 1 431 432
425 1 432 433
426 1 433 434
427 1 434 435
428 1 435 436
429 1 436 437
430 1 437 438
431 1 438 439
432 1 439 440
433 1 440 441
434 1 441 442
435 1 442 443
436 1 443 444
437 1 444 445
438 1 445 446
439 1 446 447
440 1 447 448
441 1 448 449
442 1 449 450
443 1 450 451
444 1 451 452
445 1 452 453
446 1 453 454
447 1 454 455
448 1 455 456
449 1 456 457
450 1 457 458
451 1 458 459
452 1 459 460
453 1 460 461
454 1 461 462
455 1 462 463
456 1 463 464
457 1 464 465
458 1 465 466
459 1 466 467
460 1 467 468
461 1 468 469
462 1 469 470
463 1 470 471
464 1 471 472
465 1 472 473
466 1 473 474
467 1 474 475
468 1 475 476
469 1 476 477
470 1 477 478
471 1 478 479
472 1 479 480
473 1 481 482
474 1 482 483
475 1 483 484
476 1 484 485
477 1 485 486
478 1 486 487
479 1 487 488
480 1 488 489
481 1 489 490
482 1 490 491
483 1 491 492
484 1 492 493
485 1 493 494
486 1 494 495
487 1 495 496
488 1 496 497
489 1 497 498
490 1 498 499
491 1 499 500
492 1 500 501
493 1 501 502
494 1 502 503
495 1 503 504
496 1 504 505
497 1 505 506
498 1 506 507
499 1 507 508
500 1 508 509
501 1 509 510
502 1 510 511
503 1 511 512
504 1 512 513
505 1 513 514
506 1 514 515
507 1 515 516
508 1 516 517
509 1 517 518
510 1 518 519
511 1 519 520
512 1 520 521
513 1 521 522
514 1 522 523
515 1 523 524
516 1 524 525
517 1 525 526
518 1 526 527
519 1 527 528
520 1 528 529
521 1 529 530
522 1 530 531
523 1 531 532
524 1 532 533
525 1 533 534
526 1 534 535
527 1 535 536
528 1 536 537
529 1 537 538
530 1 538 539
531 1 539 540
532 1 541 542
533 1 542 543
534 1 543 544
535 1 544 545
536 1 545 546
537 1 546 547
538 1 547 548
539 1 548 549
540 1 549 550
541 1 550 551
542 1 551 552
543 1 552 553
544 1 553 554
545 1 554 555
546 1 555 556
547 1 556 557
548 1 557 558
549 1 558 559
550 1 559 560
551 1 560 561
552 1 561 562
553 1 562 563
554 1 563 564
555 1 564 565
556 1 565 566
557 1 566 567
558 1 567 568
559 1 568 569
560 1 569 570
561 1 570 571
562 1 571 572
563 1 572 573
564 1 573 574
565 1 574 575
566 1 575 576
567 1 576 577
568 1 577 578
569 1 578 579
570 1 579 580
571 1 580 581
572 1 581 582
573 1 582 583
574 1 583 584
575 1 584 585
576 1 585 586
577 1 586 587
578 1 587 588
579 1 588 589
580 1 589 590
581 1 590 591
582 1 591 592
583 1 592 593
584 1 593 594
585 1 594 595
586 1 595 596
587 1 596 597
588 1 597 598
589 1 598 599
590 1 599 600
591 1 601 602
592 1 602 603
593 1 603 604
594 1 604 605
595 1 605 606
596 1 606 607
597 1 607 608
598 1 608 609
599 1 609 610
600 1 610 611
601 1 611 612
602 1 612 613
603 1 613 614
604 1 614 615
605 1 615 616
606 1 616 617
607 1 617 618
608 1 618 619
609 1 619 620
610 1 620 621
611 1 621 622
612 1 622 623
613 1 623 624
614 1 624 625
615 1 625 626
616 1 626 627
617 1 627 628
618 1 628 629
619 1 629 630
620 1 630 631
621 1 631 632
622 1 632 633
623 1 633 634
624 1 634 635
625 1 635 636
626 1 636 637
627 1 637 638
628 1 638 639
629 1 639 640
630 1 640 641
631 1 641 642
632 1 642 643
633 1 643 644
634 1 644 645
635 1 645 646
636 1 646 647
637 1 647 648
638 1 648 649
639 1 649 650
640 1 650 651
641 1 651 652
642 1 652 653
643 1 653 654
644 1 654 655
645 1 655 656
646 1 656 657
647 1 657 658
648 1 658 659
649 1 659 660
650 1 661 662
651 1 662 663
652 1 663 664
653 1 664 665
654 1 665 666
655 1 666 667
656 1 667 668
657 1 668 669
658 1 669 670
659 1 670 671
660 1 671 672
661 1 672 673
662 1 673 674
663 1 674 675
664 1 675 676
665 1 676 677
666 1 677 678
667 1 678 679
668 1 679 680
669 1 680 681
670 1 681 682
671 1 682 683
672 1 683 684
673 1 684 685
674 1 685 686
675 1 686 687
676 1 687 688
677 1 688 689
678 1 689 690
679 1 690 691
680 1 691 692
681 1 692 693
682 1 693 694
683 1 694 695
684 1 695 696
685 1 696 697
686 1 697 698
687 1 698 699
688 1 699 700
689 1 700 701
690 1 701 702
691 1 702 703
692 1 703 704
693 1 704 705
694 1 705 706
695 1 706 707
696 1 707 708
697 1 708 709
698 1 709 710
699 1 710 711
700 1 711 712
701 1 712 713
702 1 713 714
703 1 714 715
704 1 715 716
705 1 716 717
706 1 717 718
707 1 718 719
708 1 719 720
709 1 721 722
710 1 722 723
711 1 723 724
712 1 724 725
713 1 725 726
714 1 726 727
715 1 727 728
716 1 728 729
717 1 729 730
718 1 730 731
719 1 731 732
720 1 732 733
721 1 733 734
722 1 734 735
723 1 735 736
724 1 736 737
725 1 737 738
726 1 738 739
727 1 739 740
728 1 740 741
729 1 741 742
730 1 742 743
731 1 743 744
732 1 744 745
733 1 745 746
734 1 746 747
735 1 747 748
736 1 748 749
737 1 749 750
738 1 750 751
739 1 751 752
740 1 752 753
741 1 753 754
742 1 754 755
743 1 755 756
744 1 756 757
745 1 757 758
746 1 758 759
747 1 759 760
748 1 760 761
749 1 761 762
750 1 762 763
751 1 763 764
752 1 764 765
753 1 765 766
754 1 766 767
755 1 767 768
756 1 768 769
757 1 769 770
758 1 770 771
759 1 771 772
760 1 772 773
761 1 773 774
762 1 774 775
763 1 775 776
764 1 776 777
765 1 777 778
766 1 778 779
767 1 779 780
768 1 781 782
769 1 782 783
770 1 783 784
771 1 784 785
772 1 785 786
773 1 786 787
774 1 787 788
775 1 788 789
776 1 789 790
777 1 790 791
778 1 791 792
779 1 792 793
780 1 793 794
781 1 794 795
782 1 795 796
783 1 796 797
784 1 797 798
785 1 798 799
786 1 799 800
787 1 800 801
788 1 801 802
789 1 802 803
790 1 803 804
791 1 804 805
792 1 805 806
793 1 806 807
794 1 807 808
795 1 808 809
796 1 809 810
797 1 810 811
798 1 811 812
799 1 812 813
800 1 813 814
801 1 814 815
802 1 815 816
803 1 816 817
804 1 817 818
805 1 818 819
806 1 819 820
807 1 820 821
808 1 821 822
809 1 822 823
810 1 823 824
811 1 824 825
812 1 825 826
813 1 826 827
814 1 827 828
815 1 828 829
816 1 829 830
817 1 830 831
818 1 831 832
819 1 832 833
820 1 833 834
821 1 834 835
822 1 835 836
823 1 836 837
824 1 837 838
825 1 838 839
826 1 839 840
827 1 841 842
828 1 842 843
829 1 843 844
830 1 844 845
831 1 845 846
832 1 846 847
833 1 847 848
834 1 848 849
835 1 849 850
836 1 850 851
837 1 851 852
838 1 852 853
839 1 853 854
840 1 854 855
841 1 855 856
842 1 856 857
843 1 857 858
844 1 858 859
845 1 859 860
846 1 860 861
847 1 861 862
848 1 862 863
849 1 863 864
850 1 864 865
851 1 865 866
852 1 866 867
853 1 867 868
854 1 868 869
855 1 869 870
856 1 870 871
857 1 871 872
858 1 872 873
859 1 873 874
860 1 874 875
861 1 875 876
862 1 876 877
863 1 877 878
864 1 878 879
865 1 879 880
866 1 880 881
867 1 881 882
868 1 882 883
869 1 883 884
870 1 884 885
871 1 885 886
872 1 886 887
873 1 887 888
874 1 888 889
875 1 889 890
876 1 890 891
877 1 891 892
878 1 892 893
879 1 893 894
880 1 894 895
881 1 895 896
882 1 896 897
883 1 897 898
884 1 898 899
885 1 899 900
886 1 901 902
887 1 902 903
888 1 903 904
889 1 904 905
890 1 905 906
891 1 906 907
892 1 907 908
893 1 908 909
894 1 909 910
895 1 910 911
896 1 911 912
897 1 912 913
898 1 913 914
899 1 914 915
900 1 915 916
901 1 916 917
902 1 917 918
903 1 918 919
904 1 919 920
905 1 920 921
906 1 921 922
907 1 922 923
908 1 923 924
909 1 924 925
910 1 925 926
911 1 926 927
912 1 927 928
913 1 928 929
914 1 929 930
915 1 930 931
916 1 931 932
917 1 932 933
918 1 933 934
919 1 934 935
920 1 935 936
921 1 936 937
922 1 937 938
923 1 938 939
924 1 939 940
925 1 940 941
926 1 941 942
927 1 942 943
928 1 943 944
929 1 944 945
930 1 945 946
931 1 946 947
932 1 947 948
933 1 948 949
934 1 949 950
935 1 950 951
936 1 951 952
937 1 952 953
938 1 953 954
939 1 954 955
940 1 955 956
941 1 956 957
942 1 957 958
943 1 958 959
944 1 959 960

Angles

1 1 1 2 3
2 1 2 3 4
3 1 3 4 5
4 1 4 5 6
5 1 5 6 7
6 1 6 7 8
7 1 7 8 9
8 1 8 9 10
9 1 9 10 11
10 1 10 11 12
11 1 11 12 13
12 1 12 13 14
13 1 13 14 15
14 1 14 15 16
15 1 15 16 17
16 1 16 17 18
17 1 17 18 19
18 1 18 19 20
19 1 19 20 21
20 1 20 21 22
21 1 21 22 23
22 1 22 23 24
23 1 23 24 25
24 1 24 25 26
25 1 25 26 27
26 1 26 27 28
27 1 27 28 29
28 1 28 29 30
29 1 29 30 31
30 1 30 31 32
31 1 31 32 33
32 1 32 33 34
33 1 33 34 35
34 1 34 35 36
35 1 35 36 37
36 1 36 37 38
37 1 37 38 39
38 1 38 39 40
39 1 39 40 41
40 1 40 41 42
41 1 41 42 43
42 1 42 43 44
43 1 43 44 45
44 1 44 45 46
45 1 45 46 47
46 1 46 47 48
47 1 47 48 49
48 1 48 49 50
49 1 49 50 51
50 1 50 51 52
51 1 51 52 53
52 1 52 53 54
53 1 53 54 55
54 1 54 55 56
55 1 55 56 57
56 1 56 57 58
57 1 57 58 59
58 1 58 59 60
59 1 61 62 63
60 1 62 63 64
61 1 63 64 65
62 1 64 65 66
63 1 65 66 67
64 1 66 67 68
65 1 67 68 69
66 1 68 69 70
67 1 69 70 71
68 1 70 71 72
69 1 71 72 73
70 1 72 73 74
71 1 73 74 75
72 1 74 75 76
73 1 75 76 77
74 1 76 77 78
75 1 77 78 79
76 1 78 79 80
77 1 79 80 81
78 1 80 81 82
79 1 81 82 83
80 1 82 83 84
81 1 83 84 85
82 1 84 85 86
83 1 85 86 87
84 1 86 87 88
85 1 87 88 89
86 1 88 89 90
87 1 89 90 91
88 1 90 91 92
89 1 91 92 93
90 1 92 93 94
91 1 93 94 95
92 1 94 95 96
93 1 95 96 97
94 1 96 97 98
95 1 97 98 99
96 1 98 99 100
97 1 99 100 101
98 1 100 101 102
99 1 101 102 103
100 1 102 103 104
101 1 103 104 105
102 1 104 105 106
103 1 105 106 107
104 1 106 107 108
105 1 107 108 109
106 1 108 109 110
107 1 109 110 111
108 1 110 111 112
109 1 111 112 113
110 1 112 113 114
111 1 113 114 115
112 1 114 115 116
113 1 115 116 117
114 1 116 117 118
115 1 117 118 119
116 1 118 119 120
117 1 121 122 123
118 1 122 123 124
119 1 123 124 125
120 1 124 125 126
121 1 125 126 127
122 1 126 127 128
123 1 127 128 129
124 1 128 129 130
125 1 129 130 131
126 1 130 131 132
127 1 131 132 133
128 1 132 133 134
129 1 133 134 135
130 1 134 135 136
131 1 135 136 137
132 1 136 137 138
133 1 137 138 139
134 1 138 139 140
135 1 139 140 141
136 1 140 141 142
137 1 141 142 143
138 1 142 143 144
139 1 143 144 145
140 1 144 145 146
141 1 145 146 147
142 1 146 147 148
143 1 147 148 149
144 1 148 149 150
145 1 149 150 151
146 1 150 151 152
147 1 151 152 153
148 1 152 153 154
149 1 153 154 155
150 1 154 155 156
151 1 155 156 157
152 1 156 157 158
153 1 157 158 159
154 1 158 159 160
155 1 159 160 161
156 1 160 161 162
157 1 161 162 163
158 1 162 163 164
159 1 163 164 165
160 1 164 165 166
161 1 165 166 167
162 1 166 167 168
163 1 167 168 169
164 1 168 169 170
165 1 169 170 171
166 1 170 171 172
167 1 171 172 173
168 1 172 173 174
169 1 173 174 175
170 1 174 175 176
171 1 175 176 177
172 1 176 177 178
173 1 177 178 179
174 1 178 179 180
175 1 181 182 183
176 1 182 183 184
177 1 183 184 185
178 1 184 185 186
179 1 185 186 187
180 1 186 187 188
181 1 187 188 189
182 1 188 189 190
183 1 189 190 191
184 1 190 191 192
185 1 191 192 193
186 1 192 193 194
187 1 193 194 195
188 1 194 195 196
189 1 195 196 197
190 1 196 197 198
191 1 197 198 199
192 1 198 199 200
193 1 199 200 201
194 1 200 201 202
195 1 201 202 203
196 1 202 203 204
197 1 203 204 205
198 1 204 205 206
199 1 205 206 207
200 1 206 207 208
201 1 207 208 209
202 1 208 209 210
203 1 209 210 211
204 1 210 211 212
205 1 211 212 213
206 1 212 213 214
207 1 213 214 215
208 1 214 215 216
209 1 215 216 217
210 1 216 217 218
211 1 217 218 219
212 1 218 219 220
213 1 219 220 221
214 1 220 221 222
215 1 221 222 223
216 1 222 223 224
217 1 223 224 225
218 1 224 225 226
219 1 225 226 227
220 1 226 227 228
221 1 227 228 229
222 1 228 229 230
223 1 229 230 231
224 1 230 231 232
225 1 231 232 233
226 1 232 233 234
227 1 233 234 235
228 1 234 235 236
229 1 235 236 237
230 1 236 237 238
231 1 237 238 239
232 1 238 239 240
233 1 241 242 243
234 1 242 243 244
235 1 243 244 245
236 1 244 245 246
237 1 245 246 247
238 1 246 247 248
239 1 247 248 249
240 1 248 249 250
241 1 249 250 251
242 1 250 251 252
243 1 251 252 253
244 1 252 253 254
245 1 253 254 255
246 1 254 255 256
247 1 255 256 257
248 1 256 257 258
249 1 257 258 259
250 1 258 259 260
251 1 259 260 261
252 1 260 261 262
253 1 261 262 263
254 1 262 263 264
255 1 263 264 265
256 1 264 265 266
257 1 265 266 267
258 1 266 267 268
259 1 267 268 269
260 1 268 269 270
261 1 269 270 271
262 1 270 271 272
263 1 271 272 273
264 1 272 273 274
265 1 273 274 275
266 1 274 275 276
267 1 275 276 277
268 1 276 277 278
269 1 277 278 279
270 1 278 279 280
271 1 279 280 281
272 1 280 281 282
273 1 281 282 283
274 1 282 283 284
275 1 283 284 285
276 1 284 285 286
277 1 285 286 287
278 1 286 287 288
279 1 287 288 289
280 1 288 289 290
281 1 289 290 291
282 1 290 291 292
283 1 291 292 293
284 1 292 293 294
285 1 293 294 295
286 1 294 295 296
287 1 295 296 297
288 1 296 297 298
289 1 297 298 299
290 1 298 299 300
291 1 301 302 303
292 1 302 303 304
293 1 303 304 305
294 1 304 305 306
295 1 305 306 307
296 1 306 307 308
297 1 307 308 309
298 1 308 309 310
299 1 309 310 311
300 1 310 311 312
301 1 311 312 313
302 1 312 313 314
303 1 313 314 315
304 1 314 315 316
305 1 315 316 317
306 1 316 317 318
307 1 317 318 319
308 1 318 319 320
309 1 319 320 321
310 1 320 321 322
311 1 321 322 323
312 1 322 323 324
313 1 323 324 325
314 1 324 325 326
315 1 325 326 327
316 1 326 327 328
317 1 327 328 329
318 1 328 329 330
319 1 329 330 331
320 1 330 331 332
321 1 331 332 333
322 1 332 333 334
323 1 333 334 335
324 1 334 335 336
325 1 335 336 337
326 1 336 337 338
327 1 337 338 339
328 1 338 339 340
329 1 339 340 341
330 1 340 341 342
331 1 341 342 343
332 1 342 343 344
333 1 343 344 345
334 1 344 345 346
335 1 345 346 347
336 1 346 347 348
337 1 347 348 349
338 1 348 349 350
339 1 349 350 351
340 1 350 351 352
341 1 351 352 353
342 1 352 353 354
343 1 353 354 355
344 1 354 355 356
345 1 355 356 357
346 1 356 357 358
347 1 357 358 359
348 1 358 359 360
349 1 361 362 363
350 1 362 363 364
351 1 363 364 365
352 1 364 365 366
353 1 365 366 367
354 1 366 367 368
355 1 367 368 369
356 1 368 369 370
357 1 369 370 371
358 1 370 371 372
359 1 371 372 373
360 1 372 373 374
361 1 373 374 375
362 1 374 375 376
363 1 375 376 377
364 1 376 377 378
365 1 377 378 379
366 1 378 379 380
367 1 379 380 381
368 1 380 381 382
369 1 381 382 383
370 1 382 383 384
371 1 383 384 385
372 1 384 385 386
373 1 385 386 387
374 1 386 387 388
375 1 387 388 389
376 1 388 389 390
377 1 389 390 391
378 1 390 391 392
379 1 391 392 393
380 1 392 393 394
381 1 393 394 395
382 1 394 395 396
383 1 395 396 397
384 1 396 397 398
385 1 397 398 399
386 1 398 399 400
387 1 399 400 401
388 1 400 401 402
389 1 401 402 403
390 1 402 403 404
391 1 403 404 405
392 1 404 405 406
393 1 405 406 407
394 1 406 407 408
395 1 407 408 409
396 1 408 409 410
397 1 409 410 411
398 1 410 411 412
399 1 411 412 413
400 1 412 413 414
401 1 413 414 415
402 1 414 415 416
403 1 415 416 417
404 1 416 417 418
405 1 417 418 419
406 1 418 419 420
407 1 421 422 423
408 1 422 423 424
409 1 423 424 425
410 1 424 425 426
411 1 425 426 427
412 1 426 427 428
413 1 427 428 429
414 1 428 429 430
415 1 429 430 431
416 1 430 431 432
417 1 431 432 433
418 1 432 433 434
419 1 433 434 435
420 1 434 435 436
421 1 435 436 437
422 1 436 437 438
423 1 437 438 439
424 1 438 439 440
425 1 439 440 441
426 1 440 441 442
427 1 441 442 443
428 1 442 443 444
429 1 443 444 445
430 1 444 445 446
431 1 445 446 447
432 1 446 447 448
433 1 447 448 449
434 1 448 449 450
435 1 449 450 451
436 1 450 451 452
437 1 451 452 453
438 1 452 453 454
439 1 453 454 455
440 1 454 455 456
441 1 455 456 457
442 1 456 457 458
443 1 457 458 459
444 1 458 459 460
445 1 459 460 461
446 1 460 461 462
447 1 461 462 463
448 1 462 463 464
449 1 463 464 465
450 1 464 465 466
451 1 465 466 467
452 1 466 467 468
453 1 467 468 469
454 1 468 469 470
455 1 469 470 471
456 1 470 471 472
457 1 471 472 473
458 1 472 473 474
459 1 473 474 475
460 1 474 475 476
461 1 475 476 477
462 1 476 477 478
463 1 477 478 479
464 1 478 479 480
465 1 481 482 483
466 1 482 483 484
467 1 483 484 485
468 1 484 485 486
469 1 485 486 487
470 1 486 487 488
471 1 487 488 489
472 1 488 489 490
473 1 489 490 491
474 1 490 491 492
475 1 491 492 493
476 1 492 493 494
477 1 493 494 495
478 1 494 495 496
479 1 495 496 497
480 1 496 497 498
481 1 497 498 499
482 1 498 499 500
483 1 499 500 501
484 1 500 501 502
485 1 501 502 503
486 1 502 503 504
487 1 503 504 505
488 1 504 505 506
489 1 505 506 507
490 1 506 507 508
491 1 507 508 509
492 1 508 509 510
493 1 509 510 511
494 1 510 511 512
495 1 511 512 513
496 1 512 513 514
497 1 513 514 515
498 1 514 515 516
499 1 515 516 517
500 1 516 517 518
501 1 517 518 519
502 1 518 519 520
503 1 519 520 521
504 1 520 521 522
505 1 521 522 523
506 1 522 523 524
507 1 523 524 525
508 1 524 525 526
509 1 525 526 527
510 1 526 527 528
511 1 527 528 529
512 1 528 529 530
513 1 529 530 531
514 1 530 531 532
515 1 531 532 533
516 1 532 533 534
517 1 533 534 535
518 1 534 535 536
519 1 535 536 537
520 1 536 537 538
521 1 537 538 539
522 1 538 539 540
523 1 541 542 543
524 1 542 543 544
525 1 543 544 545
526 1 544 545 546
527 1 545 546 547
528 1 546 547 548
529 1 547 548 549
530 1 548 549 550
531 1 549 550 551
532 1 550 551 552
533 1 551 552 553
534 1 552 553 554
535 1 553 554 555
536 1 554 555 556
537 1 555 556 557
538 1 556 557 558
539 1 557 558 559
540 1 558 559 560
541 1 559 560 561
542 1 560 561 562
543 1 561 562 563
544 1 562 563 564
545 1 563 564 565
546 1 564 565 566
547 1 565 566 567
548 1 566 567 568
549 1 567 568 569
550 1 568 569 570
551 1 569 570 571
552 1 570 571 572
553 1 571 572 573
554 1 572 573 574
555 1 573 574 575
556 1 574 575 576
557 1 575 576 577
558 1 576 577 578
559 1 577 578 579
560 1 578 579 580
561 1 579 580 581
562 1 580 581 582
563 1 581 582 583
564 1 582 583 584
565 1 583 584 585
566 1 584 585 586
567 1 585 586 587
568 1 586 587 588
569 1 587 588 589
570 1 588 589 590
571 1 589 590 591
572 1 590 591 592
573 1 591 592 593
574 1 592 593 594
575 1 593 594 595
576 1 594 595 596
577 1 595 596 597
578 1 596 597 598
579 1 597 598 599
580 1 598 599 600
581 1 601 602 603
582 1 602 603 604
583 1 603 604 605
584 1 604 605 606
585 1 605 606 607
586 1 606 607 608
587 1 607 608 609
588 1 608 609 610
589 1 609 610 611
590 1 610 611 612
591 1 611 612 613
592 1 612 613 614
593 1 613 614 615
594 1 614 615 616
595 1 615 616 617
596 1 616 617 618
597 1 617 618 619
598 1 618 619 620
599 1 619 620 621
600 1 620 621 622
601 1 621 622 623
602 1 622 623 624
603 1 623 624 625
604 1 624 625 626
605 1 625 626 627
606 1 626 627 628
607 1 627 628 629
608 1 628 629 630
609 1 629 630 631
610 1 630 631 632
611 1 631 632 633
612 1 632 633 634
613 1 633 634 635
614 1 634 635 636
615 1 635 636 637
616 1 636 637 638
617 1 637 638 639
618 1 638 639 640
619 1 639 640 641
620 1 640 641 642
621 1 641 642 643
622 1 642 643 644
623 1 643 644 645
624 1 644 645 646
625 1 645 646 647
626 1 646 647 648
627 1 647 648 649
628 1 648 649 650
629 1 649 650 651
630 1 650 651 652
631 1 651 652 653
632 1 652 653 654
633 1 653 654 655
634 1 654 655 656
635 1 655 656 657
636 1 656 657 658
637 1 657 658 659
638 1 658 659 660
639 1 661 662 663
640 1 662 663 664
641 1 663 664 665
642 1 664 665 666
643 1 665 666 667
644 1 666 667 668
645 1 667 668 669
646 1 668 669 670
647 1 669 670 671
648 1 670 671 672
649 1 671 672 673
650 1 672 673 674
651 1 673 674 675
652 1 674 675 676
653 1 675 676 677
654 1 676 677 678
655 1 677 678 679
656 1 678 679 680
657 1 679 680 681
658 1 680 681 682
659 1 681 682 683
660 1 682 683 684
661 1 683 684 685
662 1 684 685 686
663 1 685 686 687
664 1 686 687 688
665 1 687 688 689
666 1 688 689 690
667 1 689 690 691
668 1 690 691 692
669 1 691 692 693
670 1 692 693 694
671 1 693 694 695
672 1 694 695 696
673 1 695 696 697
674 1 696 697 698
675 1 697 698 699
676 1 698 699 700
677 1 699 700 701
678 1 700 701 702
679 1 701 702 703
680 1 702 703 704
681 1 703 704 705
682 1 704 705 706
683 1 705 706 707
684 1 706 707 708
685 1 707 708 709
686 1 708 709 710
687 1 709 710 711
688 1 710 711 712
689 1 711 712 713
690 1 712 713 714
691 1 713 714 715
692 1 714 715 716
693 1 715 716 717
694 1 716 717 718
695 1 717 718 719
696 1 718 719 720
697 1 721 722 723
698 1 722 723 724
699 1 723 724 725
700 1 724 725 726
701 1 725 726 727
702 1 726 727 728
703 1 727 728 729
704 1 728 729 730
705 1 729 730 731
706 1 730 731 732
707 1 731 732 733
708 1 732 733 734
709 1 733 734 735
710 1 734 735 736
711 1 735 736 737
712 1 736 737 738
713 1 737 738 739
714 1 738 739 740
715 1 739 740 741
716 1 740 741 742
717 1 741 742 743
718 1 742 743 744
719 1 743 744 745
720 1 744 745 746
721 1 745 746 747
722 1 746 747 748
723 1 747 748 749
724 1 748 749 750
725 1 749 750 751
726 1 750 751 752
727 1 751 752 753
728 1 752 753 754
729 1 753 754 755
730 1 754 755 756
731 1 755 756 757
732 1 756 757 758
733 1 757 758 759
734 1 758 759 760
735 1 759 760 761
736 1 760 761 762
737 1 761 762 763
738 1 762 763 764
739 1 763 764 765
740 1 764 765 766
741 1 765 766 767
742 1 766 767 768
743 1 767 768 769
744 1 768 769 770
745 1 769 770 771
746 1 770 771 772
747 1 771 772 773
748 1 772 773 774
749 1 773 774 775
750 1 774 775 776
751 1 775 776 777
752 1 776 777 778
753 1 777 778 779
754 1 778 779 780
755 1 781 782 783
756 1 782 783 784
757 1 783 784 785
758 1 784 785 786
759 1 785 786 787
760 1 786 787 788
761 1 787 788 789
762 1 788 789 790
763 1 789 790 791
764 1 790 791 792
765 1 791 792 793
766 1 792 793 794
767 1 793 794 795
768 1 794 795 796
769 1 795 796 797
770 1 796 797 798
771 1 797 798 799
772 1 798 799 800
773 1 799 800 801
774 1 800 801 802
775 1 801 802 803
776 1 802 803 804
777 1 803 804 805
778 1 804 805 806
779 1 805 806 807
780 1 806 807 808
781 1 807 808 809
782 1 808 809 810
783 1 809 810 811
784 1 810 811 812
785 1 811 812 813
786 1 812 813 814
787 1 813 814 815
788 1 814 815 816
789 1 815 816 817
790 1 816 817 818
791 1 817 818 819
792 1 818 819 820
793 1 819 820 821
794 1 820 821 822
795 1 821 822 823
796 1 822 823 824
797 1 823 824 825
798 1 824 825 826
799 1 825 826 827
800 1 826 827 828
801 1 827 828 829
802 1 828 829 830
803 1 829 830 831
804 1 830 831 832
805 1 831 832 833
806 1 832 833 834
807 1 833 834 835
808 1 834 835 836
809 1 835 836 837
810 1 836 837 838
811 1 837 838 839
812 1 838 839 840
813 1 841 842 843
814 1 842 843 844
815 1 843 844 845
816 1 844 845 846
817 1 845 846 847
818 1 846 847 848
819 1 847 848 849
820 1 848 849 850
821 1 849 850 851
822 1 850 851 852
823 1 851 852 853
824 1 852 853 854
825 1 853 854 855
826 1 854 855 856
827 1 855 856 857
828 1 856 857 858
829 1 857 858 859
830 1 858 859 860
831 1 859 860 861
832 1 860 861 862
833 1 861 862 863
834 1 862 863 864
835 1 863 864 865
836 1 864 865 866
837 1 865 866 867
838 1 866 867 868
839 1 867 868 869
840 1 868 869 870
841 1 869 870 871
842 1 870 871 872
843 1 871 872 873
844 1 872 873 874
845 1 873 874 875
846 1 874 875 876
847 1 875 876 877
848 1 876 877 878
849 1 877 878 879
850 1 878 879 880
851 1 879 880 881
852 1 880 881 882
853 1 881 882 883
854 1 882 883 884
855 1 883 884 885
856 1 884 885 886
857 1 885 886 887
858 1 886 887 888
859 1 887 888 889
860 1 888 889 890
861 1 889 890 891
862 1 890 891 892
863 1 891 892 893
864 1 892 893 894
865 1 893 894 895
866 1 894 895 896
867 1 895 896 897
868 1 896 897 898
869 1 897 898 899
870 1 898 899 900
871 1 901 902 903
872 1 902 903 904
873 1 903 904 905
874 1 904 905 906
875 1 905 906 907
876 1 906 907 908
877 1 907 908 909
878 1 908 909 910
879 1 909 910 911
880 1 910 911 912
881 1 911 912 913
882 1 912 913 914
883 1 913 914 915
884 1 914 915 916
885 1 915 916 917
886 1 916 917 918
887 1 917 918 919
888 1 918 919 920
889 1 919 920 921
890 1 920 921 922
891 1 921 922 923
892 1 922 923 924
893 1 923 924 925
894 1 924 925 926
895 1 925 926 927
896 1 926 927 928
897 1 927 928 929
898 1 928 929 930
899 1 929 930 931
900 1 930 931 932
901 1 931 932 933
902 1 932 933 934
903 1 933 934 935
904 1 934 935 936
905 1 935 936 937
906 1 936 937 938
907 1 937 938 939
908 1 938 939 940
909 1 939 940 941
910 1 940 941 942
911 1 941 942 943
912 1 942 943 944
913 1 943 944 945
914 1 944 945 946
915 1 945 946 947
916 1 946 947 948
917 1 947 948 949
918 1 948 949 950
919 1 949 950 951
920 1 950 951 952
921 1 951 952 953
922 1 952 953 954
923 1 953 954 955
924 1 954 955 956
925 1 955 956 957
926 1 956 957 958
927 1 957 958 959
928 1 958 959 960
